! wB97X-D3 def2-SVP def2/J RIJCOSX TightSCF
%maxcore 4096
%tddft
  nroots 10
  tda true
end
%pointcharges "frame001_PYR3_embedding.pc"
* xyz 0 1
C       40.470000      53.100000      43.310000
C       39.800000      53.160000      44.540000
C       38.400000      53.300000      44.580000
C       37.730000      53.360000      45.810000
C       36.330000      53.510000      45.850000
C       35.600000      53.600000      44.650000
C       34.200000      53.740000      44.680000
C       33.480000      53.830000      43.480000
C       34.140000      53.770000      42.240000
C       35.540000      53.630000      42.200000
C       36.220000      53.570000      40.970000
C       37.610000      53.420000      40.940000
C       38.350000      53.330000      42.130000
C       39.740000      53.180000      42.110000
C       37.670000      53.390000      43.370000
C       36.270000      53.540000      43.410000
H       41.550000      52.980000      43.280000
H       40.370000      53.090000      45.460000
H       38.280000      53.300000      46.740000
H       35.820000      53.550000      46.800000
H       33.670000      53.790000      45.620000
H       32.400000      53.950000      43.500000
H       33.570000      53.840000      41.320000
H       35.660000      53.630000      40.040000
H       38.120000      53.370000      39.980000
H       40.270000      53.140000      41.160000
*
