! PBE0 def2-SVP TightSCF

%tddft
  nroots 10
end

%scf
  MaxIter 300
end

* xyz 0 1
C     53.110000    33.470000    29.910000
C     53.170000    34.140000    31.140000
C     53.320000    35.540000    31.180000
C     53.370000    36.210000    32.410000
C     53.520000    37.610000    32.450000
C     53.620000    38.340000    31.250000
C     53.750000    39.740000    31.280000
C     53.840000    40.470000    30.080000
C     53.790000    39.800000    28.850000
C     53.650000    38.400000    28.810000
C     53.590000    37.730000    27.570000
C     53.440000    36.330000    27.540000
C     53.360000    35.590000    28.740000
C     53.200000    34.200000    28.710000
C     53.420000    36.270000    29.980000
C     53.570000    37.670000    30.010000
H     52.970000    32.390000    29.880000
H     53.090000    33.580000    32.070000
H     53.290000    35.660000    33.350000
H     53.560000    38.120000    33.410000
H     53.780000    40.260000    32.230000
H     53.930000    41.550000    30.110000
H     53.850000    40.370000    27.920000
H     53.640000    38.290000    26.640000
H     53.380000    35.820000    26.580000
H     53.140000    33.670000    27.760000
*
