! wB97X-D3 def2-SVP def2/J RIJCOSX TightSCF
%maxcore 4096
%tddft
  nroots 10
  tda true
end
%pointcharges "frame000_PYR4_embedding.pc"
* xyz 0 1
C       20.850000      40.470000      56.700000
C       20.790000      39.800000      57.930000
C       20.640000      38.400000      57.970000
C       20.580000      37.730000      59.200000
C       20.440000      36.330000      59.240000
C       20.350000      35.600000      58.040000
C       20.200000      34.200000      58.070000
C       20.110000      33.480000      56.870000
C       20.170000      34.140000      55.640000
C       20.320000      35.540000      55.590000
C       20.380000      36.220000      54.360000
C       20.530000      37.610000      54.330000
C       20.610000      38.350000      55.530000
C       20.760000      39.740000      55.500000
C       20.550000      37.670000      56.770000
C       20.410000      36.270000      56.800000
H       20.960000      41.550000      56.670000
H       20.860000      40.370000      58.850000
H       20.650000      38.280000      60.130000
H       20.390000      35.820000      60.190000
H       20.150000      33.670000      59.020000
H       20.000000      32.400000      56.900000
H       20.100000      33.570000      54.710000
H       20.310000      35.660000      53.430000
H       20.570000      38.120000      53.370000
H       20.810000      40.270000      54.550000
*
