! PBE0 def2-SVP TightSCF SlowConv

%tddft
  nroots 20
end

%scf
  MaxIter 500
  ConvForced true
end

* xyz 0 1
C     20.840000    40.470000    56.700000
C     20.780000    39.800000    57.930000
C     20.630000    38.400000    57.970000
C     20.570000    37.730000    59.210000
C     20.420000    36.330000    59.240000
C     20.330000    35.600000    58.040000
C     20.190000    34.200000    58.070000
C     20.100000    33.470000    56.870000
C     20.160000    34.140000    55.640000
C     20.300000    35.540000    55.600000
C     20.370000    36.210000    54.360000
C     20.520000    37.610000    54.330000
C     20.600000    38.340000    55.530000
C     20.750000    39.740000    55.500000
C     20.540000    37.670000    56.770000
C     20.390000    36.270000    56.800000
H     20.950000    41.550000    56.670000
H     20.840000    40.370000    58.860000
H     20.630000    38.280000    60.140000
H     20.380000    35.820000    60.200000
H     20.150000    33.670000    59.020000
H     19.990000    32.390000    56.900000
H     20.100000    33.570000    54.710000
H     20.310000    35.660000    53.430000
H     20.570000    38.120000    53.370000
H     20.800000    40.270000    54.550000
C     33.470000    19.620000    70.080000
C     34.140000    19.560000    71.320000
C     35.540000    19.420000    71.360000
C     36.210000    19.360000    72.590000
C     37.610000    19.220000    72.630000
C     38.340000    19.140000    71.430000
C     39.750000    19.010000    71.460000
C     40.470000    18.950000    70.260000
C     39.810000    19.010000    69.030000
C     38.410000    19.130000    68.980000
C     37.730000    19.190000    67.750000
C     36.330000    19.320000    67.710000
C     35.600000    19.400000    68.910000
C     34.200000    19.540000    68.880000
C     36.270000    19.340000    70.150000
C     37.670000    19.200000    70.190000
H     32.390000    19.720000    70.060000
H     33.570000    19.620000    72.240000
H     35.650000    19.420000    73.520000
H     38.120000    19.170000    73.580000
H     40.270000    18.970000    72.410000
H     41.560000    18.860000    70.290000
H     40.380000    18.980000    68.100000
H     38.290000    19.150000    66.820000
H     35.820000    19.370000    66.760000
H     33.670000    19.590000    67.930000
O     16.650000    31.160000    53.010000
H     16.910000    30.460000    53.600000
H     16.290000    31.830000    53.580000
O     17.360000    28.960000    54.520000
H     16.630000    28.390000    54.780000
H     17.790000    28.490000    53.800000
O     17.300000    37.340000    55.490000
H     18.250000    37.230000    55.490000
H     17.140000    38.040000    56.110000
O     17.230000    30.180000    59.520000
H     17.770000    29.940000    58.770000
H     16.360000    30.330000    59.160000
O     15.860000    35.050000    56.250000
H     16.410000    35.790000    56.000000
H     14.970000    35.340000    56.060000
O     15.280000    32.910000    54.610000
H     14.670000    33.360000    54.020000
H     15.610000    33.600000    55.180000
O     16.720000    31.770000    61.980000
H     17.010000    31.360000    61.160000
H     17.500000    31.770000    62.540000
O     17.680000    38.110000    62.050000
H     18.420000    37.550000    62.290000
H     16.990000    37.500000    61.790000
O     17.530000    42.340000    60.700000
H     17.540000    41.420000    60.440000
H     16.770000    42.410000    61.280000
O     16.480000    39.330000    57.200000
H     16.930000    39.420000    58.040000
H     15.960000    40.130000    57.120000
O     30.390000    16.520000    69.850000
H     31.180000    16.550000    70.390000
H     30.670000    16.100000    69.040000
O     32.640000    15.990000    71.460000
H     33.530000    16.190000    71.740000
H     32.730000    15.210000    70.920000
O     35.120000    16.520000    72.570000
H     35.290000    16.490000    73.510000
H     35.620000    17.280000    72.260000
O     31.930000    15.390000    74.050000
H     32.030000    16.210000    74.550000
H     32.160000    15.630000    73.150000
O     35.560000    16.600000    75.380000
H     36.430000    16.440000    75.750000
H     35.180000    17.280000    75.950000
O     31.970000    17.640000    75.630000
H     31.620000    17.260000    76.440000
H     32.780000    18.080000    75.910000
O     19.710000    36.510000    62.930000
H     20.490000    36.710000    63.440000
H     19.280000    35.810000    63.420000
O     37.790000    18.760000    63.970000
H     37.830000    18.010000    64.560000
H     36.890000    19.080000    64.060000
O     28.690000    18.740000    69.160000
H     29.260000    18.060000    69.510000
H     28.810000    18.700000    68.220000
O     28.320000    21.580000    69.890000
H     27.640000    21.860000    69.280000
H     28.530000    20.690000    69.630000
O     18.320000    34.640000    64.390000
H     18.180000    35.020000    65.260000
H     17.450000    34.580000    64.010000
O     18.410000    28.840000    57.220000
H     18.240000    29.070000    56.310000
H     17.820000    28.100000    57.390000
O     29.680000    18.140000    74.120000
H     30.490000    18.100000    74.640000
H     29.530000    17.230000    73.850000
O     34.290000    18.700000    76.850000
H     35.080000    19.200000    77.070000
H     33.740000    18.770000    77.630000
O     36.600000    19.610000    78.180000
H     36.290000    18.830000    78.640000
H     36.610000    20.300000    78.840000
O     21.510000    44.470000    52.220000
H     21.490000    44.930000    51.380000
H     22.320000    43.950000    52.190000
O     19.110000    43.590000    53.400000
H     18.650000    44.430000    53.430000
H     19.920000    43.770000    52.920000
O     19.580000    44.560000    56.060000
H     19.500000    44.110000    56.900000
H     19.350000    43.890000    55.410000
O     19.380000    43.530000    58.840000
H     18.800000    42.990000    59.370000
H     20.180000    43.610000    59.360000
O     21.380000    43.980000    60.710000
H     22.130000    44.340000    60.250000
H     21.720000    43.690000    61.550000
O     17.260000    39.760000    59.860000
H     17.640000    39.190000    60.530000
H     16.330000    39.580000    59.880000
O     40.800000    16.610000    64.740000
H     40.850000    17.560000    64.730000
H     40.500000    16.370000    63.860000
O     38.900000    15.060000    73.860000
H     39.620000    14.430000    73.890000
H     38.410000    14.840000    73.070000
O     38.870000    15.980000    68.320000
H     39.170000    16.740000    68.810000
H     38.020000    15.760000    68.710000
O     37.430000    14.230000    71.660000
H     37.850000    13.400000    71.410000
H     36.630000    13.960000    72.120000
O     35.890000    15.720000    64.450000
H     36.650000    15.960000    64.990000
H     35.550000    14.930000    64.870000
O     38.230000    16.590000    65.680000
H     38.300000    16.420000    66.620000
H     39.120000    16.500000    65.360000
O     36.450000    15.550000    69.460000
H     36.730000    15.100000    70.250000
H     35.960000    16.310000    69.780000
O     43.550000    16.730000    75.300000
H     43.860000    16.430000    74.450000
H     43.040000    16.000000    75.650000
O     38.050000    15.780000    76.350000
H     38.800000    16.090000    76.870000
H     38.430000    15.570000    75.500000
O     40.520000    19.320000    64.450000
H     39.570000    19.350000    64.350000
H     40.870000    19.470000    63.570000
O     39.360000    19.360000    78.200000
H     39.840000    20.010000    77.700000
H     38.440000    19.530000    77.990000
*
