! PBE0 def2-SVP TightSCF SlowConv

%tddft
  nroots 10
end

%scf
  MaxIter 500
  ConvForced true
end

* xyz 0 1
C     40.470000    53.110000    43.310000
C     39.800000    53.160000    44.540000
C     38.400000    53.310000    44.580000
C     37.730000    53.370000    45.810000
C     36.330000    53.510000    45.850000
C     35.590000    53.600000    44.650000
C     34.190000    53.750000    44.680000
C     33.470000    53.840000    43.480000
C     34.140000    53.780000    42.240000
C     35.540000    53.640000    42.200000
C     36.220000    53.580000    40.970000
C     37.610000    53.430000    40.940000
C     38.350000    53.340000    42.140000
C     39.740000    53.200000    42.110000
C     37.670000    53.400000    43.380000
C     36.270000    53.550000    43.410000
H     41.550000    52.990000    43.280000
H     40.370000    53.090000    45.470000
H     38.280000    53.290000    46.750000
H     35.810000    53.540000    46.810000
H     33.670000    53.790000    45.630000
H     32.390000    53.940000    43.500000
H     33.570000    53.850000    41.320000
H     35.660000    53.650000    40.040000
H     38.120000    53.400000    39.980000
H     40.270000    53.150000    41.160000
O     29.850000    51.700000    40.110000
H     29.500000    52.420000    40.630000
H     29.740000    50.930000    40.660000
O     31.820000    54.540000    38.480000
H     31.330000    53.740000    38.260000
H     31.450000    54.810000    39.320000
O     28.140000    51.480000    43.120000
H     28.320000    52.290000    42.650000
H     28.030000    51.750000    44.040000
O     28.740000    53.810000    41.580000
H     29.470000    54.390000    41.370000
H     28.110000    53.950000    40.880000
O     36.180000    58.160000    43.990000
H     35.880000    57.600000    44.700000
H     35.380000    58.460000    43.560000
O     29.770000    56.420000    47.200000
H     29.440000    57.200000    46.750000
H     30.700000    56.410000    47.000000
O     36.760000    58.200000    47.620000
H     36.250000    59.010000    47.690000
H     37.670000    58.480000    47.640000
O     29.700000    57.750000    43.800000
H     29.450000    58.280000    43.050000
H     29.200000    58.100000    44.530000
O     30.680000    55.550000    40.770000
H     31.460000    55.870000    41.240000
H     30.310000    56.330000    40.360000
O     32.590000    56.660000    46.980000
H     32.660000    56.530000    47.920000
H     33.490000    56.550000    46.660000
O     27.810000    55.700000    43.440000
H     28.530000    56.320000    43.530000
H     28.130000    55.050000    42.820000
O     32.950000    56.520000    41.930000
H     33.200000    57.370000    42.280000
H     33.630000    55.920000    42.240000
O     35.230000    56.560000    46.040000
H     35.740000    55.780000    45.800000
H     35.810000    57.040000    46.640000
O     40.640000    53.680000    37.180000
H     40.140000    52.880000    37.340000
H     39.980000    54.370000    37.090000
O     38.740000    55.550000    36.580000
H     38.570000    55.550000    35.640000
H     38.560000    56.450000    36.850000
O     42.380000    57.080000    40.240000
H     41.930000    57.570000    39.550000
H     43.110000    56.660000    39.780000
O     40.520000    57.170000    42.330000
H     41.090000    57.020000    41.580000
H     39.890000    56.450000    42.300000
O     42.470000    57.760000    44.250000
H     43.190000    57.630000    43.630000
H     41.690000    57.460000    43.770000
*
