! PBE0 def2-SVP D3BJ RIJCOSX TightSCF TDDFT

%pal
  nprocs 4
end

%tddft
  nroots 10
  maxdim 50
end

%scf
  MaxIter 300
end

* xyz 0 1
C     53.110000    33.470000    29.910000
C     53.170000    34.140000    31.140000
C     53.320000    35.540000    31.180000
C     53.370000    36.210000    32.410000
C     53.520000    37.610000    32.450000
C     53.620000    38.340000    31.250000
C     53.750000    39.740000    31.280000
C     53.840000    40.470000    30.080000
C     53.790000    39.800000    28.850000
C     53.650000    38.400000    28.810000
C     53.590000    37.730000    27.570000
C     53.440000    36.330000    27.540000
C     53.360000    35.590000    28.740000
C     53.200000    34.200000    28.710000
C     53.420000    36.270000    29.980000
C     53.570000    37.670000    30.010000
H     52.970000    32.390000    29.880000
H     53.090000    33.580000    32.070000
H     53.290000    35.660000    33.350000
H     53.560000    38.120000    33.410000
H     53.780000    40.260000    32.230000
H     53.930000    41.550000    30.110000
H     53.850000    40.370000    27.920000
H     53.640000    38.290000    26.640000
H     53.380000    35.820000    26.580000
H     53.140000    33.670000    27.760000
O     56.030000    35.940000    34.320000
H     55.640000    35.070000    34.400000
H     55.610000    36.450000    35.020000
O     54.810000    33.480000    34.680000
H     54.070000    33.940000    35.080000
H     55.190000    32.970000    35.390000
O     55.040000    31.730000    25.240000
H     55.570000    31.240000    25.870000
H     55.420000    32.610000    25.250000
O     53.040000    35.120000    36.020000
H     53.650000    35.770000    36.370000
H     52.260000    35.220000    36.560000
O     55.030000    36.870000    36.820000
H     55.710000    36.380000    37.280000
H     54.770000    37.550000    37.440000
O     56.360000    45.420000    31.780000
H     56.340000    46.170000    31.180000
H     56.660000    45.780000    32.610000
O     56.480000    44.380000    27.480000
H     57.010000    43.810000    26.930000
H     56.790000    44.210000    28.370000
O     53.650000    44.280000    27.040000
H     53.180000    44.690000    27.770000
H     54.560000    44.260000    27.320000
O     56.590000    38.120000    28.180000
H     56.790000    37.230000    27.900000
H     55.660000    38.100000    28.390000
O     57.340000    35.970000    31.790000
H     56.730000    35.930000    32.520000
H     57.290000    36.870000    31.480000
O     56.740000    33.960000    25.170000
H     56.750000    34.490000    25.970000
H     57.390000    33.280000    25.330000
O     56.490000    31.320000    33.620000
H     56.030000    30.500000    33.420000
H     55.810000    31.990000    33.590000
O     57.230000    35.590000    27.340000
H     57.460000    35.100000    28.130000
H     58.070000    35.740000    26.900000
O     57.500000    39.870000    26.190000
H     57.000000    39.740000    25.390000
H     57.070000    39.310000    26.840000
O     57.600000    43.770000    29.920000
H     57.710000    42.860000    30.180000
H     57.200000    44.190000    30.670000
O     58.400000    41.150000    30.460000
H     57.920000    40.350000    30.660000
H     58.970000    40.920000    29.730000
O     56.280000    39.620000    23.730000
H     55.910000    40.300000    23.170000
H     56.600000    38.950000    23.130000
O     56.650000    42.710000    34.460000
H     57.340000    43.250000    34.070000
H     56.100000    42.460000    33.720000
O     57.490000    38.540000    30.760000
H     57.150000    38.400000    29.870000
H     58.410000    38.300000    30.710000
*
