! PBE0 def2-SVP D3BJ RIJCOSX TightSCF TDDFT

%pal
  nprocs 4
end

%tddft
  nroots 10
  maxdim 50
end

%scf
  MaxIter 300
end

* xyz 0 1
C     20.840000    40.470000    56.700000
C     20.780000    39.800000    57.930000
C     20.630000    38.400000    57.970000
C     20.570000    37.730000    59.210000
C     20.420000    36.330000    59.240000
C     20.330000    35.600000    58.040000
C     20.190000    34.200000    58.070000
C     20.100000    33.470000    56.870000
C     20.160000    34.140000    55.640000
C     20.300000    35.540000    55.600000
C     20.370000    36.210000    54.360000
C     20.520000    37.610000    54.330000
C     20.600000    38.340000    55.530000
C     20.750000    39.740000    55.500000
C     20.540000    37.670000    56.770000
C     20.390000    36.270000    56.800000
H     20.950000    41.550000    56.670000
H     20.840000    40.370000    58.860000
H     20.630000    38.280000    60.140000
H     20.380000    35.820000    60.200000
H     20.150000    33.670000    59.020000
H     19.990000    32.390000    56.900000
H     20.100000    33.570000    54.710000
H     20.310000    35.660000    53.430000
H     20.570000    38.120000    53.370000
H     20.800000    40.270000    54.550000
O     16.650000    31.160000    53.010000
H     16.910000    30.460000    53.600000
H     16.290000    31.830000    53.580000
O     17.360000    28.960000    54.520000
H     16.630000    28.390000    54.780000
H     17.790000    28.490000    53.800000
O     17.300000    37.340000    55.490000
H     18.250000    37.230000    55.490000
H     17.140000    38.040000    56.110000
O     17.230000    30.180000    59.520000
H     17.770000    29.940000    58.770000
H     16.360000    30.330000    59.160000
O     15.860000    35.050000    56.250000
H     16.410000    35.790000    56.000000
H     14.970000    35.340000    56.060000
O     15.280000    32.910000    54.610000
H     14.670000    33.360000    54.020000
H     15.610000    33.600000    55.180000
O     16.720000    31.770000    61.980000
H     17.010000    31.360000    61.160000
H     17.500000    31.770000    62.540000
O     17.680000    38.110000    62.050000
H     18.420000    37.550000    62.290000
H     16.990000    37.500000    61.790000
O     17.530000    42.340000    60.700000
H     17.540000    41.420000    60.440000
H     16.770000    42.410000    61.280000
O     16.480000    39.330000    57.200000
H     16.930000    39.420000    58.040000
H     15.960000    40.130000    57.120000
O     19.710000    36.510000    62.930000
H     20.490000    36.710000    63.440000
H     19.280000    35.810000    63.420000
O     18.320000    34.640000    64.390000
H     18.180000    35.020000    65.260000
H     17.450000    34.580000    64.010000
O     18.410000    28.840000    57.220000
H     18.240000    29.070000    56.310000
H     17.820000    28.100000    57.390000
O     21.510000    44.470000    52.220000
H     21.490000    44.930000    51.380000
H     22.320000    43.950000    52.190000
O     19.110000    43.590000    53.400000
H     18.650000    44.430000    53.430000
H     19.920000    43.770000    52.920000
O     19.580000    44.560000    56.060000
H     19.500000    44.110000    56.900000
H     19.350000    43.890000    55.410000
O     19.380000    43.530000    58.840000
H     18.800000    42.990000    59.370000
H     20.180000    43.610000    59.360000
O     21.380000    43.980000    60.710000
H     22.130000    44.340000    60.250000
H     21.720000    43.690000    61.550000
O     17.260000    39.760000    59.860000
H     17.640000    39.190000    60.530000
H     16.330000    39.580000    59.880000
*
