! PBE0 def2-SVP D3BJ RIJCOSX TightSCF TDDFT

%pal
  nprocs 4
end

%tddft
  nroots 10
  maxdim 50
end

%scf
  MaxIter 300
end

* xyz 0 1
C     33.470000    19.620000    70.080000
C     34.140000    19.560000    71.320000
C     35.540000    19.420000    71.360000
C     36.210000    19.360000    72.590000
C     37.610000    19.220000    72.630000
C     38.340000    19.140000    71.430000
C     39.750000    19.010000    71.460000
C     40.470000    18.950000    70.260000
C     39.810000    19.010000    69.030000
C     38.410000    19.130000    68.980000
C     37.730000    19.190000    67.750000
C     36.330000    19.320000    67.710000
C     35.600000    19.400000    68.910000
C     34.200000    19.540000    68.880000
C     36.270000    19.340000    70.150000
C     37.670000    19.200000    70.190000
H     32.390000    19.720000    70.060000
H     33.570000    19.620000    72.240000
H     35.650000    19.420000    73.520000
H     38.120000    19.170000    73.580000
H     40.270000    18.970000    72.410000
H     41.560000    18.860000    70.290000
H     40.380000    18.980000    68.100000
H     38.290000    19.150000    66.820000
H     35.820000    19.370000    66.760000
H     33.670000    19.590000    67.930000
O     30.390000    16.520000    69.850000
H     31.180000    16.550000    70.390000
H     30.670000    16.100000    69.040000
O     32.640000    15.990000    71.460000
H     33.530000    16.190000    71.740000
H     32.730000    15.210000    70.920000
O     35.120000    16.520000    72.570000
H     35.290000    16.490000    73.510000
H     35.620000    17.280000    72.260000
O     31.930000    15.390000    74.050000
H     32.030000    16.210000    74.550000
H     32.160000    15.630000    73.150000
O     35.560000    16.600000    75.380000
H     36.430000    16.440000    75.750000
H     35.180000    17.280000    75.950000
O     31.970000    17.640000    75.630000
H     31.620000    17.260000    76.440000
H     32.780000    18.080000    75.910000
O     37.790000    18.760000    63.970000
H     37.830000    18.010000    64.560000
H     36.890000    19.080000    64.060000
O     28.690000    18.740000    69.160000
H     29.260000    18.060000    69.510000
H     28.810000    18.700000    68.220000
O     28.320000    21.580000    69.890000
H     27.640000    21.860000    69.280000
H     28.530000    20.690000    69.630000
O     29.680000    18.140000    74.120000
H     30.490000    18.100000    74.640000
H     29.530000    17.230000    73.850000
O     34.290000    18.700000    76.850000
H     35.080000    19.200000    77.070000
H     33.740000    18.770000    77.630000
O     36.600000    19.610000    78.180000
H     36.290000    18.830000    78.640000
H     36.610000    20.300000    78.840000
O     40.800000    16.610000    64.740000
H     40.850000    17.560000    64.730000
H     40.500000    16.370000    63.860000
O     38.900000    15.060000    73.860000
H     39.620000    14.430000    73.890000
H     38.410000    14.840000    73.070000
O     38.870000    15.980000    68.320000
H     39.170000    16.740000    68.810000
H     38.020000    15.760000    68.710000
O     37.430000    14.230000    71.660000
H     37.850000    13.400000    71.410000
H     36.630000    13.960000    72.120000
O     35.890000    15.720000    64.450000
H     36.650000    15.960000    64.990000
H     35.550000    14.930000    64.870000
O     38.230000    16.590000    65.680000
H     38.300000    16.420000    66.620000
H     39.120000    16.500000    65.360000
O     36.450000    15.550000    69.460000
H     36.730000    15.100000    70.250000
H     35.960000    16.310000    69.780000
O     43.550000    16.730000    75.300000
H     43.860000    16.430000    74.450000
H     43.040000    16.000000    75.650000
O     38.050000    15.780000    76.350000
H     38.800000    16.090000    76.870000
H     38.430000    15.570000    75.500000
O     40.520000    19.320000    64.450000
H     39.570000    19.350000    64.350000
H     40.870000    19.470000    63.570000
O     39.360000    19.360000    78.200000
H     39.840000    20.010000    77.700000
H     38.440000    19.530000    77.990000
*
