! PBE0 def2-SVP TightSCF SlowConv

%tddft
  nroots 20
end

%scf
  MaxIter 500
  ConvForced true
end

* xyz 0 1
C     53.110000    33.470000    29.910000
C     53.170000    34.140000    31.140000
C     53.320000    35.540000    31.180000
C     53.370000    36.210000    32.410000
C     53.520000    37.610000    32.450000
C     53.620000    38.340000    31.250000
C     53.750000    39.740000    31.280000
C     53.840000    40.470000    30.080000
C     53.790000    39.800000    28.850000
C     53.650000    38.400000    28.810000
C     53.590000    37.730000    27.570000
C     53.440000    36.330000    27.540000
C     53.360000    35.590000    28.740000
C     53.200000    34.200000    28.710000
C     53.420000    36.270000    29.980000
C     53.570000    37.670000    30.010000
H     52.970000    32.390000    29.880000
H     53.090000    33.580000    32.070000
H     53.290000    35.660000    33.350000
H     53.560000    38.120000    33.410000
H     53.780000    40.260000    32.230000
H     53.930000    41.550000    30.110000
H     53.850000    40.370000    27.920000
H     53.640000    38.290000    26.640000
H     53.380000    35.820000    26.580000
H     53.140000    33.670000    27.760000
C     40.470000    53.110000    43.310000
C     39.800000    53.160000    44.540000
C     38.400000    53.310000    44.580000
C     37.730000    53.370000    45.810000
C     36.330000    53.510000    45.850000
C     35.590000    53.600000    44.650000
C     34.190000    53.750000    44.680000
C     33.470000    53.840000    43.480000
C     34.140000    53.780000    42.240000
C     35.540000    53.640000    42.200000
C     36.220000    53.580000    40.970000
C     37.610000    53.430000    40.940000
C     38.350000    53.340000    42.140000
C     39.740000    53.200000    42.110000
C     37.670000    53.400000    43.380000
C     36.270000    53.550000    43.410000
H     41.550000    52.990000    43.280000
H     40.370000    53.090000    45.470000
H     38.280000    53.290000    46.750000
H     35.810000    53.540000    46.810000
H     33.670000    53.790000    45.630000
H     32.390000    53.940000    43.500000
H     33.570000    53.850000    41.320000
H     35.660000    53.650000    40.040000
H     38.120000    53.400000    39.980000
H     40.270000    53.150000    41.160000
*
