LAMMPS (10 Dec 2025)
Reading data file ...
  orthogonal box = (-10.450439 -7.859276 -10.619224) to (8.357685 8.898672 6.948941)
  1 by 1 by 1 MPI processor grid
  reading atoms ...
  37 atoms
  reading velocities ...
  37 velocities
  scanning bonds ...
  3 = max bonds/atom
  scanning angles ...
  3 = max angles/atom
  scanning dihedrals ...
  12 = max dihedrals/atom
  scanning impropers ...
  2 = max impropers/atom
  orthogonal box = (-10.450439 -7.859276 -10.619224) to (8.357685 8.898672 6.948941)
  1 by 1 by 1 MPI processor grid
  reading bonds ...
  42 bonds
  reading angles ...
  64 angles
  reading dihedrals ...
  97 dihedrals
  reading impropers ...
  17 impropers
Finding 1-2 1-3 1-4 neighbors ...
  special bond factors lj:    0        0        0.5     
  special bond factors coul:  0        0        0.5     
     3 = max # of 1-2 neighbors
     6 = max # of 1-3 neighbors
    17 = max # of 1-4 neighbors
    17 = max # of special neighbors
  special bonds CPU = 0.000 seconds
  read_data CPU = 0.005 seconds
Generated 6 of 6 mixed pair_coeff terms from geometric mixing rule
Neighbor list info ...
  update: every = 1 steps, delay = 0 steps, check = yes
  max neighbors/atom: 2000, page size: 100000
  master list distance cutoff = 14
  ghost atom cutoff = 14
  binsize = 7, bins = 3 3 3
  1 neighbor lists, perpetual/occasional/extra = 1 0 0
  (1) pair lj/cut, perpetual
      attributes: half, newton on
      pair build: half/bin/newton
      stencil: half/bin/3d
      bin: standard
Setting up Verlet run ...
  Unit style    : real
  Current step  : 0
  Time step     : 0.25
Per MPI rank memory allocation (min/avg/max) = 12.56 | 12.56 | 12.56 Mbytes
   Step          Temp          PotEng         KinEng         TotEng         E_bond        E_angle        E_dihed        E_impro         E_vdwl         Press     
         0   10             16.343312      1.0730916      17.416404      0.21696368     0.78182367     0              0.041998877    15.302526      15.263465    
       100   6.1325261      16.777705      0.65807624     17.435781      0.36040327     0.9619479      0              0.16987008     15.285484      84.298784    
       200   5.29055        16.922421      0.56772449     17.490145      0.44218506     1.0085829      0              0.11682575     15.354827      286.71837    
       300   5.6707482      16.960237      0.60852324     17.56876       0.50702666     0.97011598     0              0.12000508     15.363089     -130.96759    
       400   5.8105023      17.025113      0.62352013     17.648634      0.29864647     1.1684984      0              0.14014622     15.417822      614.10491    
       500   7.7292929      16.8849        0.82942394     17.714324      0.42234185     1.0624356      0              0.14446891     15.255654      14.422171    
       600   7.928381       16.93051       0.85078792     17.781298      0.52884826     0.9056393      0              0.16911859     15.326904     -165.03229    
       700   7.611215       17.042323      0.81675311     17.859076      0.58703806     1.0292399      0              0.12976256     15.296282     -53.500855    
       800   9.3467073      16.946345      1.0029873      17.949332      0.5653722      1.028878       0              0.16845966     15.183635     -97.292677    
       900   10.643248      16.906087      1.142118       18.048205      0.57009009     1.165743       0              0.21293465     14.957319     -172.48312    
      1000   10.066313      17.07045       1.0802076      18.150658      0.68554209     1.2404613      0              0.2279604      14.916486     -431.56583    
      1100   10.938364      17.072228      1.1737866      18.246015      0.74414784     1.101403       0              0.2181756      15.008502     -45.798309    
      1200   12.975803      16.932734      1.3924225      18.325156      0.80298458     1.1109349      0              0.113777       14.905037     -670.43024    
      1300   12.595046      17.034595      1.3515638      18.386159      0.65176141     1.1861742      0              0.23624697     14.960413     -334.86987    
      1400   15.157134      16.796959      1.6264993      18.423458      0.80589353     1.0285564      0              0.08414137     14.878368     -479.05016    
      1500   12.834314      17.060762      1.3772395      18.438002      0.93681206     0.90228987     0              0.26110014     14.96056      -661.96264    
      1600   11.588576      17.183384      1.2435604      18.426944      0.79855102     1.0091047      0              0.32812454     15.047603      22.888152    
      1700   13.531835      16.936639      1.4520899      18.388729      0.50451949     1.2391613      0              0.23354691     14.959412     -33.166642    
      1800   13.631879      16.868272      1.4628255      18.331098      0.39980866     1.1446578      0              0.19174104     15.132065      593.03445    
      1900   13.447761      16.816735      1.443068       18.259803      0.4448551      1.1437386      0              0.14282037     15.085321      306.8278     
      2000   13.131889      16.776142      1.409172       18.185314      0.55229487     0.94312853     0              0.1949569      15.085761      18.152965    
      2100   12.898939      16.731009      1.3841743      18.115183      0.48808718     1.1016896      0              0.12870671     15.012526      91.655137    
      2200   12.629596      16.70119       1.3552713      18.056462      0.3653295      1.039898       0              0.1608332      15.13513       300.91415    
      2300   11.289664      16.801723      1.2114844      18.013207      0.405198       0.88444631     0              0.28116235     15.230916      232.60728    
      2400   10.862896      16.822551      1.1656883      17.988239      0.71692916     0.91309028     0              0.11213194     15.080399     -69.118341    
      2500   12.106991      16.681073      1.2991911      17.980264      0.64016422     0.83153407     0              0.1106516      15.098723      21.045663    
      2600   13.803652      16.509802      1.4812583      17.991061      0.54368856     0.81954286     0              0.14609875     15.000472      7.8653662    
      2700   14.672003      16.452042      1.5744403      18.026483      0.38439917     0.83214155     0              0.064739797    15.170762     -11.107829    
      2800   12.160486      16.793095      1.3049316      18.098027      0.76750406     0.82669991     0              0.11784704     15.081044     -145.37817    
      2900   12.122065      16.913559      1.3008087      18.214368      0.72498654     0.90134809     0              0.24731289     15.039911     -304.99932    
      3000   13.605508      16.90929       1.4599957      18.369285      0.71208364     0.86000759     0              0.22651138     15.110687     -164.8463     
      3100   16.023511      16.802331      1.7194696      18.521801      0.62711152     0.68930273     0              0.23537714     15.25054       195.9123     
      3200   15.424804      16.981029      1.6552228      18.636252      0.5446195      0.84009835     0              0.15795519     15.438356      181.11777    
      3300   13.643689      17.24364       1.4640929      18.707733      0.88748979     0.99613164     0              0.14383195     15.216187      383.06994    
      3400   14.411828      17.203033      1.5465212      18.749554      0.75664815     0.99152636     0              0.14447039     15.310388      325.41437    
      3500   15.974201      17.061231      1.7141782      18.775409      0.4879149      0.90567814     0              0.17377884     15.493859      186.43862    
      3600   13.03098       17.404311      1.3983436      18.802655      0.653505       1.050818       0              0.24138514     15.458603     -220.49573    
      3700   12.678999      17.476415      1.3605727      18.836987      0.60551986     1.1835273      0              0.19235268     15.495015      126.14162    
      3800   13.038719      17.490934      1.399174       18.890108      0.86698201     1.0502456      0              0.18237164     15.391335      313.45862    
      3900   14.367236      17.416183      1.5417361      18.957919      0.54068255     0.77306903     0              0.15408283     15.948349      310.11039    
      4000   16.52355       17.269704      1.7731283      19.042832      0.58292741     0.87519988     0              0.11271524     15.698861      266.55306    
      4100   16.256186      17.401252      1.7444377      19.14569       0.67197434     0.89026991     0              0.11695658     15.722051      74.216456    
      4200   15.500607      17.596199      1.6633571      19.259556      0.72156906     0.9252292      0              0.10710284     15.842297      441.37531    
      4300   16.030775      17.649886      1.7202491      19.370135      0.79148241     0.75777097     0              0.27718433     15.823448     -643.29967    
      4400   14.112519      17.948581      1.5144026      19.462983      0.78824339     0.92367628     0              0.32638176     15.910279     -453.30508    
      4500   14.045615      18.027969      1.5072232      19.535192      1.0855993      1.2288184      0              0.20680905     15.506742     -677.26131    
      4600   14.15445       18.078019      1.5189022      19.596921      1.0126325      0.79577213     0              0.28895554     15.980659     -486.37317    
      4700   16.311467      17.898303      1.7503699      19.648673      0.95110129     0.959051       0              0.14463651     15.843514     -34.419967    
      4800   18.125078      17.747317      1.9449869      19.692304      0.84148676     0.77633775     0              0.23979556     15.889697     -210.98111    
      4900   17.470916      17.858075      1.8747894      19.732864      0.76651823     0.93747178     0              0.31566734     15.838417      34.965647    
      5000   14.677141      18.204883      1.5749917      19.779874      0.88837017     1.0732132      0              0.38325712     15.860042     -335.84825    
      5100   14.972148      18.227695      1.6066487      19.834343      0.91429713     0.65079249     0              0.44038257     16.222222      373.1493     
      5200   15.911039      18.195277      1.7074003      19.902677      0.87424086     1.1337935      0              0.23435266     15.95289       269.97976    
      5300   16.731385      18.188565      1.7954309      19.983996      0.68547773     1.3719649      0              0.1818527      15.949269      196.55462    
      5400   16.322106      18.326886      1.7515115      20.078398      0.97965476     1.423124       0              0.22641755     15.69769       306.88633    
      5500   15.181311      18.561259      1.6290938      20.190353      0.99104713     1.3879624      0              0.30401836     15.878231      45.221322    
      5600   17.896939      18.388968      1.9205055      20.309474      0.81469183     1.3446978      0              0.22377905     16.0058        830.98142    
      5700   21.420677      18.114433      2.2986349      20.413068      0.79106716     1.3637326      0              0.37630688     15.583327      300.56439    
      5800   22.929367      18.019096      2.4605312      20.479627      0.86897647     1.1230417      0              0.33553775     15.69154       259.39765    
      5900   19.521013      18.419541      2.0947836      20.514325      1.5416391      1.1711246      0              0.14500784     15.56177      -656.7739     
      6000   17.230012      18.676734      1.8489382      20.525672      1.2609245      1.3271485      0              0.21690323     15.871758     -582.77952    
      6100   19.285358      18.457894      2.0694956      20.527389      1.1182577      1.7024666      0              0.26673373     15.370436     -161.72869    
      6200   20.901161      18.282382      2.242886       20.525268      1.1712921      1.5494844      0              0.15861854     15.402987     -973.93198    
      6300   18.782839      18.504925      2.0155707      20.520495      1.2785729      1.4951354      0              0.23295024     15.498266     -613.33473    
      6400   17.033917      18.684081      1.8278954      20.511976      1.2812411      1.5938238      0              0.23397624     15.57504      -411.37941    
      6500   20.398035      18.313382      2.1888961      20.502278      0.90594362     1.2515413      0              0.47008623     15.685811      305.40746    
      6600   23.918322      17.921479      2.5666551      20.488135      1.0619236      1.2039104      0              0.22130334     15.434342     -436.17891    
      6700   21.864255      18.127849      2.3462349      20.474084      0.72957645     1.2587381      0              0.22417917     15.915355      538.3802     
      6800   17.983867      18.527899      1.9298337      20.457732      1.0286398      1.3862473      0              0.26086253     15.852149      288.81193    
      6900   18.557574      18.454901      1.9913978      20.446299      0.73493933     1.3965522      0              0.23293601     16.090474      618.85946    
      7000   19.131932      18.400212      2.0530316      20.453243      0.63309853     1.2301678      0              0.4567579      16.080187      525.52658    
      7100   18.178961      18.545465      1.9507691      20.496234      0.60617636     1.6011288      0              0.28266852     16.055492      480.68252    
      7200   18.200908      18.651027      1.9531242      20.604151      0.86104197     1.1445371      0              0.42335782     16.22209       916.07158    
      7300   22.299657      18.414367      2.3929576      20.807325      0.91595133     1.265578       0              0.20614693     16.026691      791.80637    
      7400   22.578104      18.670963      2.4228375      21.0938        0.95522854     1.6165208      0              0.20850566     15.890708      347.42748    
      7500   27.904739      18.360288      2.9944342      21.354722      0.91513004     1.4157471      0              0.42872546     15.600686      461.48384    
      7600   25.777437      18.736465      2.7661552      21.50262       1.1063569      1.3219814      0              0.38098177     15.927145      1052.7932    
      7700   27.787268      18.520651      2.9818284      21.502479      1.175126       1.3702006      0              0.41292365     15.562401     -70.433164    
      7800   27.951624      18.373684      2.9994654      21.373149      1.1608377      1.4316664      0              0.39467813     15.386502     -320.51765    
      7900   25.612725      18.424669      2.74848        21.173149      1.4153463      1.4744262      0              0.35128967     15.183607     -375.2185     
      8000   26.231563      18.13125       2.814887       20.946137      1.0571488      1.358466       0              0.17809274     15.537542     -9.2279634    
      8100   23.779338      18.182714      2.5517408      20.734455      1.2420703      1.3697847      0              0.1556032      15.415256      15.864909    
      8200   25.11796       17.858849      2.6953872      20.554236      1.2767775      1.2608223      0              0.2631666      15.058083     -775.26948    
      8300   24.578649      17.776241      2.6375142      20.413755      1.0032007      1.2018997      0              0.34860938     15.222531     -776.03182    
      8400   23.584702      17.774992      2.5308546      20.305847      1.2340924      0.84167569     0              0.33974428     15.35948      -619.01783    
      8500   20.632782      18.003164      2.2140865      20.217251      1.1080206      0.86861185     0              0.41530412     15.611228     -213.78062    
      8600   22.470272      17.724086      2.4112661      20.135352      1.0685863      1.2113641      0              0.28237102     15.161764     -120.7788     
      8700   23.923975      17.495626      2.5672617      20.062888      0.7552034      1.2053851      0              0.19039088     15.344647      37.824721    
      8800   21.955142      17.641553      2.3559879      19.997541      0.8308688      1.03412        0              0.29814782     15.478416      151.61131    
      8900   21.087525      17.672394      2.2628846      19.935279      0.8868697      1.1577239      0              0.1977489      15.430052      499.30245    
      9000   17.91311       17.952371      1.9222408      19.874612      0.90509696     1.454722       0              0.29457339     15.297979      549.31034    
      9100   21.668514      17.487814      2.3252301      19.813044      0.99549292     1.2335049      0              0.23208989     15.026726     -246.80895    
      9200   22.813687      17.310401      2.4481176      19.758518      0.64956222     1.0134237      0              0.30108418     15.346331      308.74205    
      9300   21.643115      17.401087      2.3225046      19.723591      0.73060498     1.2263181      0              0.24773789     15.196426      60.677278    
      9400   22.190224      17.33306       2.3812143      19.714274      0.8788196      1.1008451      0              0.16333546     15.19006       534.58424    
      9500   20.81066       17.512571      2.2331745      19.745746      1.0567684      1.203693       0              0.25216644     14.999943      101.76186    
      9600   19.941749      17.702514      2.1399324      19.842447      1.1793363      1.2015459      0              0.19670822     15.124924     -253.93064    
      9700   22.753707      17.586954      2.4416812      20.028635      0.99391029     1.2480041      0              0.36301099     14.982029     -253.69276    
      9800   21.254705      18.021379      2.2808246      20.302204      1.2885806      1.7633167      0              0.29853129     14.67095      -624.03416    
      9900   20.389766      18.390328      2.1880087      20.578337      1.1993694      1.870113       0              0.3518157      14.96903      -508.66624    
     10000   23.955724      18.219212      2.5706687      20.789881      1.4527572      1.5769368      0              0.54264113     14.646877     -1453.8385    
     10100   26.486393      18.105129      2.8422326      20.947361      0.86175268     1.9568237      0              0.34027537     14.946277     -290.85305    
     10200   27.572341      18.117534      2.9587648      21.076299      0.94330822     1.9287862      0              0.29637667     14.949063     -126.18607    
     10300   25.043885      18.513197      2.6874383      21.200636      1.2056185      1.9056982      0              0.36872318     15.033158     -429.31598    
     10400   19.226395      19.257958      2.0631683      21.321126      1.3149263      1.9968079      0              0.56909394     15.37713       318.12491    
     10500   20.325542      19.264396      2.1811168      21.445513      1.3476077      2.0664992      0              0.60629704     15.243992      72.495683    
     10600   22.614066      19.16152       2.4266965      21.588216      1.0156393      1.8857703      0              0.6513714      15.608739      1159.0537    
     10700   22.808287      19.309447      2.4475381      21.756985      1.1717233      2.342149       0              0.43787575     15.357699      272.35966    
     10800   25.62566       19.182261      2.7498681      21.932129      1.1034227      1.9342615      0              0.36602474     15.778552      1038.4616    
     10900   27.657938      19.123068      2.9679501      22.091018      0.96061872     2.1215107      0              0.34891624     15.692022      997.31212    
     11000   30.565951      18.940164      3.2800066      22.220171      1.3031666      1.7991381      0              0.48612672     15.351733      206.36621    
     11100   30.214527      19.077833      3.2422956      22.320129      1.1409277      1.8111844      0              0.6336675      15.492053      611.88673    
     11200   31.042029      19.041287      3.3310942      22.372381      1.549626       1.7382296      0              0.52111871     15.232313      4.0612715    
     11300   29.271901      19.213727      3.1411431      22.35487       2.179088       1.4805419      0              0.5587143      14.995382     -700.72944    
     11400   31.287834      18.906868      3.3574712      22.26434       1.9073336      1.7981214      0              0.3827527      14.818661     -662.93       
     11500   28.645031      19.043833      3.0738742      22.117707      1.3756428      2.1701054      0              0.48781983     15.010265     -546.13638    
     11600   24.04878       19.32912       2.5806545      21.909774      2.1312851      1.7450637      0              0.39308221     15.059689     -1413.1999    
     11700   25.282257      18.952059      2.7130178      21.665077      2.0059508      1.6205227      0              0.36151765     14.964068     -798.62781    
     11800   26.129745      18.634915      2.803961       21.438876      1.4611881      1.7920272      0              0.22554214     15.156158     -717.38144    
     11900   30.589867      17.98977       3.282573       21.272343      0.96884237     1.5750914      0              0.30963698     15.1362       -483.96265    
     12000   26.648708      18.324833      2.8596506      21.184483      1.0426616      1.1094804      0              0.44461619     15.728074      882.35668    
     12100   26.423896      18.31539       2.8355261      21.150916      0.96020704     1.558181       0              0.26576723     15.531235      524.93715    
     12200   26.452111      18.312025      2.8385538      21.150579      0.65196296     1.5749916      0              0.32327065     15.7618        560.69708    
     12300   24.546081      18.543775      2.6340193      21.177795      0.7961982      1.3927388      0              0.32476039     16.030078      1337.7506    
     12400   22.701682      18.790921      2.4360985      21.22702       0.9592664      1.3970861      0              0.38210835     16.052461      1244.3245    
     12500   22.31172       18.904269      2.394252       21.298521      1.0029489      1.4072048      0              0.38897125     16.105144      610.75377    
     12600   25.974034      18.606131      2.7872518      21.393383      1.2910179      1.5019655      0              0.38120827     15.431939     -69.866981    
     12700   29.195294      18.36768       3.1329225      21.500603      1.1968582      1.1675756      0              0.093719217    15.909527      565.36762    
     12800   30.944735      18.296141      3.3206535      21.616795      1.0721582      1.3139632      0              0.3427374      15.567282     -28.897236    
     12900   29.222224      18.612695      3.1358123      21.748507      1.3305959      1.4350976      0              0.37567107     15.47133      -717.47651    
     13000   26.233053      19.0728        2.815047       21.887846      1.4940393      1.8606616      0              0.42524143     15.292857     -837.27819    
     13100   30.180265      18.793769      3.2386189      22.032388      1.6968756      1.6309429      0              0.42901896     15.036932     -605.4013     
     13200   28.332135      19.143466      3.0402977      22.183764      1.777065       1.5296457      0              0.52801619     15.308739     -954.59831    
     13300   28.809055      19.22988       3.0914755      22.321355      1.8995014      1.5272785      0              0.49705855     15.306041     -570.60677    
     13400   29.872043      19.229842      3.2055439      22.435386      1.6478721      1.8342319      0              0.44004038     15.307697     -1029.8283    
     13500   27.888519      19.5292        2.9926936      22.521893      1.8651731      2.0215608      0              0.44693258     15.195533     -489.34892    
     13600   34.333646      18.887324      3.6843148      22.571639      1.1229946      1.4036368      0              0.71811461     15.642578     -106.15876    
     13700   39.945177      18.289722      4.2864835      22.576205      0.94785948     1.374298       0              0.36447857     15.603085     -186.53672    
     13800   33.540221      18.903858      3.599173       22.503031      1.42513        1.9699607      0              0.32658433     15.182183      82.58665     
     13900   29.793562      19.098023      3.1971221      22.295146      1.4111569      1.56391        0              0.43641029     15.686546      253.47492    
     14000   28.558478      18.809096      3.0645863      21.873683      1.1887205      1.9183861      0              0.26617248     15.435817      400.5356     
     14100   25.59704       18.620204      2.7467969      21.367001      0.9303441      1.7240893      0              0.32135581     15.644415      981.30389    
     14200   24.542409      18.407611      2.6336253      21.041237      1.0307298      1.738411       0              0.4061026      15.232368      256.41777    
     14300   26.164031      18.092976      2.8076403      20.900616      0.88023377     1.5114794      0              0.35708978     15.344173      494.22685    
     14400   27.789254      17.876658      2.9820416      20.8587        1.143286       1.2037711      0              0.26963336     15.259967     -385.07157    
     14500   29.01391       17.763228      3.1134584      20.876686      1.0397429      1.0800012      0              0.26170078     15.381783     -410.1335     
     14600   24.803207      18.286905      2.6616114      20.948517      1.1466601      1.268305       0              0.55536331     15.316577     -769.63187    
     14700   22.50481       18.6605        2.4149723      21.075472      1.5810108      1.3238311      0              0.26797746     15.48768      -526.69328    
     14800   29.160547      18.128484      3.1291939      21.257678      1.2697101      1.0652626      0              0.24905397     15.544458     -766.31975    
     14900   29.946224      18.269138      3.2135042      21.482642      1.1825246      1.3211998      0              0.37180159     15.393612      10.889398    
     15000   32.614358      18.220936      3.4998194      21.720755      1.0735334      1.4256218      0              0.40978412     15.311997     -523.82955    
     15100   31.543898      18.565297      3.3849492      21.950246      1.2295203      1.5242915      0              0.32335678     15.488128     -127.24644    
     15200   29.34909       19.013932      3.1494262      22.163359      1.1217817      1.5335892      0              0.5377041      15.820857      978.13307    
     15300   33.46964       18.758258      3.5915991      22.349857      0.91581218     1.3654192      0              0.51939059     15.957636      262.5288     
     15400   31.688455      19.117258      3.4004615      22.517719      1.5389541      1.5028784      0              0.37720532     15.69822       367.74438    
     15500   30.159215      19.428887      3.2363601      22.665247      1.2416933      1.9005284      0              0.33619756     15.950468      1119.8376    
     15600   31.237903      19.445686      3.3521132      22.7978        1.3932806      1.5221051      0              0.34520657     16.185094      454.97206    
     15700   32.273344      19.46602       3.4632255      22.929245      1.2601745      1.5361307      0              0.24562155     16.424093      1636.6999    
     15800   33.098109      19.509095      3.5517303      23.060825      0.98580531     1.8899612      0              0.47440536     16.158923      1360.1825    
     15900   29.388135      20.048335      3.1536161      23.201951      1.8536381      2.1246915      0              0.35780687     15.712199     -188.40903    
     16000   26.964065      20.469037      2.8934913      23.362528      1.5542522      2.3479388      0              0.63394781     15.932898     -342.25754    
     16100   24.768986      20.888934      2.6579391      23.546873      2.1142451      2.1706436      0              0.46503259     16.139013      225.07668    
     16200   30.515426      20.467381      3.2745848      23.741966      1.6200885      2.0146542      0              0.7271458      16.105492     -652.64959    
     16300   40.815864      19.54387       4.3799162      23.923786      1.6937441      1.7451499      0              0.28618634     15.81879      -1065.2339    
     16400   34.001102      20.4197        3.6486298      24.06833       1.8964966      1.8980556      0              0.55704318     16.068104     -103.05106    
     16500   36.038092      20.275053      3.8672175      24.14227       1.7928952      2.002365       0              0.4704715      16.009321     -826.69065    
     16600   39.194058      19.953428      4.2058815      24.159309      1.6925174      1.6669711      0              0.45502506     16.138914      622.74867    
     16700   37.413121      20.117104      4.0147707      24.131875      1.907482       2.0665836      0              0.42330563     15.719733     -596.95831    
     16800   40.236647      19.745152      4.3177608      24.062913      1.7847345      1.8939479      0              0.70763855     15.358831     -570.47065    
     16900   35.786157      20.099234      3.8401825      23.939417      1.663718       1.9601162      0              0.9277377      15.547662      182.47328    
     17000   42.306901      19.214201      4.539918       23.754119      1.3446108      1.6170516      0              0.61886099     15.633677      266.14416    
     17100   42.385556      19.002657      4.5483585      23.551015      1.0809817      1.7191157      0              0.3747756      15.827784      1142.4181    
     17200   38.775845      19.207869      4.1610035      23.368873      1.1275982      2.0789753      0              0.39671885     15.604577      397.0346     
     17300   34.55188       19.500542      3.7077333      23.208275      1.7566711      1.5503341      0              0.77268414     15.420852     -165.57854    
     17400   34.271027      19.391739      3.6775952      23.069334      1.5685947      1.4382797      0              0.93491965     15.449945     -443.83746    
     17500   35.072086      19.186087      3.7635562      22.949643      1.7585803      1.7349889      0              0.52815051     15.164367     -308.61839    
     17600   36.204122      18.963906      3.885034       22.84894       1.0201719      2.1215507      0              0.35361915     15.468564      22.179552    
     17700   37.330484      18.773143      4.005903       22.779046      1.1655967      1.9826419      0              0.40233543     15.222569     -28.362175    
     17800   35.092405      18.964368      3.7657366      22.730104      1.7192165      1.4992375      0              0.44592899     15.299985     -398.09715    
     17900   35.895216      18.839207      3.8518855      22.691092      1.1752905      1.9812521      0              0.59999233     15.082672     -685.57395    
     18000   37.005984      18.693147      3.9710811      22.664228      1.0915266      2.1101075      0              0.39488531     15.096627     -310.90462    
     18100   34.306397      18.984221      3.6813907      22.665612      1.3303357      1.2964811      0              0.72173829     15.635666     -392.81945    
     18200   30.213844      19.447892      3.2422223      22.690114      2.2189182      1.734783       0              0.38111854     15.113072     -1187.3199    
     18300   29.223603      19.61161       3.1359604      22.74757       1.6272113      2.1808716      0              0.39957992     15.403947     -11.567776    
     18400   36.916323      18.893126      3.9614597      22.854586      1.6627575      1.3219125      0              0.6151463      15.29331      -1367.0414    
     18500   41.866149      18.553449      4.4926214      23.04607       0.85996463     1.3615854      0              0.40362602     15.928273      748.25782    
     18600   43.604511      18.707783      4.6791636      23.386947      1.243397       1.2937818      0              0.22690917     15.943695      491.58453    
     18700   39.948551      19.607773      4.2868455      23.894619      1.7088821      1.7616386      0              0.52358158     15.613671     -113.58081    
     18800   40.690501      20.065747      4.3664635      24.43221       1.3025749      2.0958788      0              0.68704268     15.98025       1209.9635    
     18900   44.549944      20.023903      4.7806171      24.80452       1.9336273      1.6061954      0              0.61308694     15.870993      372.51191    
     19000   41.160539      20.551808      4.4169029      24.968711      2.2589172      1.6365848      0              0.42998929     16.226317      354.42477    
     19100   42.316555      20.448199      4.540954       24.989153      1.6553555      2.1542302      0              0.55636019     16.082253      1198.4748    
     19200   39.115872      20.727696      4.1974914      24.925187      1.35906        2.4424181      0              1.0172633      15.908954      247.62324    
     19300   43.888411      20.09492       4.7096286      24.804549      1.2356743      2.2058533      0              0.66042528     15.992967      718.43973    
     19400   48.2435        19.461489      5.1769696      24.638458      1.1711219      1.9296196      0              0.63257246     15.728175      790.28991    
     19500   34.500997      20.745171      3.7022731      24.447444      1.9588575      2.4889596      0              0.61879096     15.678563      174.53793    
     19600   30.760592      20.951349      3.3008933      24.252242      2.7504565      2.4713853      0              0.58969618     15.139811     -593.66848    
     19700   32.354516      20.613164      3.471936       24.0851        1.8341154      2.9589395      0              0.30782352     15.512286     -334.93818    
     19800   40.746565      19.590153      4.3724798      23.962633      1.8446625      1.6678697      0              0.66844385     15.409177     -778.02027    
     19900   42.795378      19.288891      4.5923362      23.881227      1.2764885      1.7072884      0              0.4603963      15.844718      819.75692    
     20000   33.863674      20.19807       3.6338824      23.831952      1.9930588      2.2356922      0              0.31465795     15.654661     -258.94942    
     20100   32.400496      20.331529      3.47687        23.808399      2.1088707      2.079137       0              0.60569733     15.537824     -773.9416     
     20200   36.574245      19.889521      3.9247516      23.814272      1.7941726      1.9998591      0              0.36248806     15.733001      354.29519    
     20300   39.030058      19.690176      4.1882828      23.878459      1.8881344      1.7315316      0              0.51390507     15.556605      24.232734    
     20400   36.607769      20.085575      3.9283491      24.013924      1.7796132      2.4167383      0              0.4235401      15.465684      111.7559     
     20500   39.891524      19.96585       4.280726       24.246576      1.4182913      2.1747862      0              0.74637413     15.626398      638.44189    
     20600   41.189244      20.208599      4.4199833      24.628582      1.4104733      2.4277746      0              0.81089615     15.559455     -292.06171    
     20700   45.461896      20.287151      4.878478       25.165629      1.7503938      2.145349       0              0.541858       15.84955       627.18087    
     20800   53.30798       19.992532      5.7204347      25.712967      1.8395571      2.3198471      0              0.236048       15.59708      -61.815294    
     20900   53.330955      20.391145      5.7229001      26.114045      2.2928726      2.0393782      0              0.50151967     15.557375      482.30522    
     21000   55.489569      20.318981      5.9545392      26.273521      2.009613       2.4859828      0              0.63473584     15.18865       153.8523     
     21100   46.633526      21.22708       5.0042046      26.231284      2.5880703      3.1176212      0              0.85025504     14.671133     -1289.7419    
     21200   46.94385       21.075542      5.0375052      26.113048      2.4519621      2.8739194      0              0.93610371     14.813557     -260.23459    
     21300   37.567171      21.948584      4.0313016      25.979885      2.3801882      3.2823013      0              1.1706273      15.115467     -50.572268    
     21400   35.426435      22.036452      3.801581       25.838033      2.0224516      3.1712468      0              1.5907583      15.251995      279.22798    
     21500   42.539183      21.1114        4.5648441      25.676244      2.1652342      3.5956712      0              0.26123731     15.089258      92.239558    
     21600   41.256772      21.085504      4.4272296      25.512734      2.1930969      2.6973178      0              1.0624023      15.132687     -490.5437     
     21700   45.820279      20.422191      4.9169357      25.339127      2.3085549      2.0796903      0              0.76908554     15.26486      -638.83905    
     21800   39.407498      20.880895      4.2287856      25.10968       2.1285779      2.8615263      0              0.69534743     15.195443      149.0855     
     21900   41.119413      20.3831        4.4124898      24.79559       1.7051711      3.125542       0              0.45293998     15.099447      571.46125    
     22000   46.688276      19.414103      5.0100798      24.424183      1.1854379      2.4746564      0              0.4824819      15.271527     -404.14873    
     22100   42.934379      19.45193       4.6072522      24.059182      1.9505054      1.5999148      0              0.69921406     15.202296     -782.21862    
     22200   38.749478      19.593516      4.158174       23.75169       1.7535218      2.462682       0              0.46097203     14.91634      -662.82915    
     22300   39.435327      19.311797      4.2317719      23.543569      1.5634415      1.9908951      0              0.35196015     15.4055        607.84787    
     22400   39.262607      19.222913      4.2132375      23.43615       1.5316098      1.5526964      0              0.60095019     15.537656     -140.73394    
     22500   39.426658      19.167647      4.2308417      23.398489      1.5446992      2.0834855      0              0.33975829     15.199704     -1298.9459    
     22600   45.13212       18.565499      4.84309        23.408589      1.0970242      1.6602593      0              0.39031232     15.417903      552.67335    
     22700   42.030688      18.935522      4.5102779      23.4458        2.0269597      1.5695743      0              0.37978785     14.959201     -885.73632    
     22800   48.006052      18.343444      5.1514892      23.494933      1.3423013      1.4105389      0              0.44418543     15.146418      332.08964    
     22900   42.073396      19.05052       4.5148608      23.565381      1.3841946      2.0620501      0              0.39589638     15.208379      530.4877     
     23000   41.827392      19.178211      4.4884624      23.666674      1.9081061      1.8836883      0              0.23369288     15.152724     -460.57997    
     23100   39.11585       19.598386      4.1974891      23.795875      1.8167336      2.2310724      0              0.52269469     15.027885      187.89165    
     23200   35.224533      20.172272      3.7799151      23.952187      1.7523796      2.4586865      0              0.75355012     15.207655      118.35593    
     23300   42.029147      19.618543      4.5101125      24.128656      1.8901227      1.9638663      0              0.36954202     15.395012     -797.03341    
     23400   45.141085      19.483836      4.844052       24.327888      1.7771221      1.8710723      0              0.22709224     15.608549      576.1205     
     23500   48.663032      19.334031      5.2219892      24.55602       1.2327184      2.2369867      0              0.45683429     15.407492      697.69078    
     23600   43.551316      20.152099      4.6734553      24.825555      1.6985315      2.2888792      0              0.64652812     15.518161      514.06216    
     23700   47.433105      20.041998      5.0900067      25.132004      1.8815508      1.6502925      0              0.7876201      15.722534      515.94539    
     23800   53.832082      19.668612      5.7766756      25.445287      1.6919493      1.8465987      0              0.47590874     15.654155     -151.5271     
     23900   44.276764      20.977389      4.7513024      25.728692      2.1497076      2.5190759      0              0.76036714     15.548239     -316.36508    
     24000   47.711727      20.851207      5.1199055      25.971112      2.2503505      2.1126571      0              0.69218927     15.79601       23.219581    
     24100   46.234899      21.245213      4.9614282      26.206641      1.9063977      1.881207       0              1.2191272      16.238481     -445.13401    
     24200   54.320618      20.627054      5.8290999      26.456154      1.1709876      2.2038812      0              0.88624064     16.365945      496.05537    
     24300   54.023662      20.942414      5.7972339      26.739648      1.5146983      2.9756748      0              0.69342633     15.758615      478.01698    
     24400   46.788141      22.059012      5.0207962      27.079808      2.4988175      2.725443       0              0.91032632     15.924425      374.57117    
     24500   53.87391       21.709348      5.7811641      27.490513      2.404907       2.7186111      0              0.75163953     15.834191      189.21006    
     24600   49.249543      22.667661      5.2849272      27.952589      2.3507953      2.7597554      0              1.3261033      16.231007     -54.869304    
     24700   60.993705      21.838139      6.5451834      28.383322      2.0107793      3.2933829      0              0.90381944     15.630157      158.82622    
     24800   60.431116      22.161396      6.4848124      28.646208      2.4241231      2.6631905      0              0.90425251     16.169829      891.53968    
     24900   65.728428      21.643359      7.0532625      28.696621      2.0901589      2.4680742      0              0.63617571     16.44895       872.15591    
     25000   61.854379      21.86907       6.6375416      28.506612      1.5980538      2.154839       0              1.6505158      16.465661      461.27195    
     25100   60.534538      21.520031      6.4959105      28.015941      2.0701242      2.4228937      0              1.2148746      15.812138     -401.07798    
     25200   56.00492       21.26253       6.009841       27.272371      2.2284141      2.5586206      0              1.1437572      15.331738     -115.82114    
     25300   50.276685      21.171062      5.3951489      26.56621       2.4961989      2.1243108      0              1.0992245      15.451327      246.85609    
     25400   51.832305      20.524184      5.5620812      26.086265      2.1150786      1.6050084      0              0.67435825     16.129739      354.89086    
     25500   50.839664      20.327917      5.4555617      25.783479      1.3965796      2.2269352      0              0.94078029     15.763622     -73.048768    
     25600   47.585779      20.460751      5.10639        25.567141      1.6747668      2.9131011      0              0.53587472     15.337009     -379.00099    
     25700   46.488491      20.397884      4.9886411      25.386525      2.1591321      2.2480879      0              0.474112       15.516552     -117.83415    
     25800   41.385375      20.790981      4.4410299      25.232011      2.3351857      2.2125373      0              0.42679564     15.816462     -1253.2567    
     25900   40.176696      20.82519       4.3113276      25.136517      2.7141181      2.3862231      0              0.42944718     15.295401     -1109.3718    
     26000   42.89042       20.483026      4.6025351      25.085561      2.3819361      2.792044       0              0.37649523     14.93255      -1586.444     
     26100   47.37786       19.982719      5.0840784      25.066798      2.4798597      1.7628011      0              0.47439286     15.265666     -1173.7995    
     26200   51.440787      19.537278      5.5200678      25.057345      1.9439387      1.3781743      0              0.71699646     15.498168      137.96544    
     26300   47.568973      19.966143      5.1045866      25.07073       1.5631825      2.4369445      0              0.59054181     15.375474     -291.70102    
     26400   45.05924       20.289417      4.8352692      25.124687      1.0977499      3.2484101      0              0.71201017     15.231247      158.80217    
     26500   49.390827      19.933575      5.3000883      25.233663      1.8360632      2.2660676      0              0.6097691      15.221675     -1.3232082    
     26600   41.668025      20.93556       4.4713609      25.40692       2.002043       2.6858288      0              0.50842653     15.739261      1153.2414    
     26700   39.466805      21.433864      4.2351498      25.669014      2.2124465      2.9852921      0              0.65542527     15.5807        176.9645     
     26800   43.426857      21.385594      4.6600996      26.045693      1.5560298      3.7782912      0              0.5977801      15.453493      377.92356    
     26900   45.102204      21.676293      4.8398797      26.516172      2.3607041      2.6702237      0              1.0316154      15.61375       347.28427    
     27000   48.259381      21.782193      5.1786737      26.960866      2.4061745      2.555039       0              0.84735891     15.97362      -266.15596    
     27100   56.514164      21.233427      6.0644875      27.297915      2.6145863      2.0049489      0              0.64746065     15.966431      265.26523    
     27200   70.244357      19.940848      7.537863       27.478711      1.3182343      2.2618572      0              0.89712269     15.463634      302.88597    
     27300   70.620587      19.905488      7.578236       27.483724      2.2412545      1.3237112      0              0.89373318     15.446789      240.18417    
     27400   51.318402      21.794383      5.5069347      27.301318      3.4092206      2.3909171      0              0.75461079     15.239635     -1457.3573    
     27500   45.186676      22.193987      4.8489444      27.042932      3.2531769      2.8032644      0              0.9000329      15.237513     -653.60704    
     27600   51.29705       21.273547      5.5046434      26.77819       2.6405344      3.0166247      0              0.52955807     15.08683       69.425367    
     27700   51.074307      21.076671      5.4807411      26.557412      2.2539353      2.9575944      0              0.49864228     15.366499     -1097.9582    
     27800   45.814315      21.485134      4.9162958      26.40143       2.2405626      2.9166215      0              0.63458063     15.693369     -517.08025    
     27900   47.616196      21.221189      5.109654       26.330843      1.9005642      2.692961       0              0.57099909     16.056665      810.0301     
     28000   50.488794      20.910851      5.4179101      26.328761      1.7467098      2.1825024      0              0.8304008      16.151238      1153.0889    
     28100   55.560674      20.402373      5.9621693      26.364543      2.5500541      1.7080537      0              0.38302524     15.76124      -705.59336    
     28200   47.830248      21.297445      5.1326238      26.430069      1.9930438      2.4212108      0              0.73419065     16.149         603.77425    
     28300   48.661002      21.306861      5.2217713      26.528632      1.684182       2.9106447      0              0.6377235      16.074311      485.85472    
     28400   47.330053      21.573851      5.0789484      26.652799      1.5247729      3.0250883      0              0.82052986     16.20346       1396.0825    
     28500   53.916729      20.997524      5.785759       26.783283      1.5070424      2.2877692      0              0.74515217     16.45756       1878.3076    
     28600   53.161658      21.166009      5.7047329      26.870742      1.9378281      2.4347016      0              0.58424778     16.209232      993.08123    
     28700   54.268164      21.094771      5.8234712      26.918242      2.0324577      2.6913174      0              0.55674538     15.81425       66.6465      
     28800   56.713756      20.817306      6.0859056      26.903211      2.1864867      2.7747866      0              0.44212707     15.413905      934.33035    
     28900   58.259045      20.554961      6.2517293      26.806691      2.4201221      1.8415247      0              0.94173185     15.351583     -213.16519    
     29000   51.701407      21.111341      5.5480346      26.659376      2.6592834      2.1644367      0              0.98910192     15.298519     -337.43374    
     29100   54.68502       20.669096      5.8682036      26.5373        1.9947134      2.8344004      0              0.50981024     15.330172     -77.824378    
     29200   50.790949      21.018748      5.4503342      26.469082      1.8452922      3.1900394      0              0.47222861     15.511187      978.36746    
     29300   47.021884      21.385429      5.045879       26.431308      2.1790284      3.016685       0              0.9169217      15.272794      142.78366    
     29400   53.53987       20.657779      5.7453186      26.403098      1.8775405      2.4824495      0              0.84897871     15.44881      -332.87738    
     29500   46.009479      21.471875      4.9372387      26.409114      1.8670585      3.5366508      0              1.114697       14.953469      29.019689    
     29600   47.914716      21.298049      5.141688       26.439737      3.0221828      2.7145899      0              0.70164463     14.859632     -824.08891    
     29700   60.265012      19.994619      6.4669879      26.461607      1.962001       1.9445582      0              0.61486226     15.473198      325.12027    
     29800   58.802408      20.140297      6.3100371      26.450334      1.210975       2.3330067      0              1.1098671      15.486448      593.6924     
     29900   52.98046       20.759468      5.6852888      26.444757      1.5703236      2.7491146      0              0.97797424     15.462056      223.12949    
     30000   51.185221      20.983404      5.4926432      26.476047      2.3937695      1.9298378      0              1.3020688      15.357728     -660.1562     
     30100   51.310317      21.020497      5.5060671      26.526564      2.4130841      2.0801702      0              0.55539957     15.971843      9.9649737    
     30200   48.769592      21.336346      5.233424       26.56977       2.9149167      1.3182271      0              1.2794649      15.823737     -823.71416    
     30300   52.810938      20.930722      5.6670975      26.59782       2.0968647      1.9562081      0              0.92743256     15.950217      130.6493     
     30400   51.667973      21.102337      5.5444469      26.646784      2.0374997      2.3590375      0              0.56476295     16.141037      697.11262    
     30500   51.144224      21.244673      5.4882438      26.732917      1.8178744      2.5063193      0              0.74248712     16.177993      189.18794    
     30600   54.72841       21.003699      5.8728598      26.876558      1.7547807      2.1097373      0              0.70838707     16.430793     -153.71822    
     30700   49.848561      21.729015      5.3492074      27.078222      1.9508203      2.4329852      0              1.1239325      16.221277      414.61722    
     30800   56.236273      21.305102      6.0346673      27.339769      2.2928751      1.7852743      0              0.65590096     16.571051      146.8437     
     30900   61.282909      21.107377      6.5762176      27.683595      2.3279197      1.6543683      0              0.39982483     16.725264      91.626522    
     31000   55.17848       22.141809      5.9211565      28.062965      3.0457024      2.5320518      0              0.59352013     15.970534     -1139.9495    
     31100   64.441928      21.489581      6.9152093      28.40479       2.1147899      2.3270797      0              1.1504478      15.897263     -1317.4518    
     31200   63.130244      21.920509      6.7744536      28.694963      3.0458613      2.3835019      0              0.67117224     15.819974     -320.97374    
     31300   61.429765      22.309549      6.5919766      28.901526      3.3682351      1.7954317      0              0.90271387     16.243168     -1206.7175    
     31400   60.528489      22.481347      6.4952614      28.976608      3.0502683      2.3626602      0              0.9379135      16.130505     -1009.7465    
     31500   68.70153       21.544379      7.3723036      28.916683      2.2440219      2.498721       0              0.83950656     15.96213       117.34786    
     31600   63.900667      21.901425      6.857127       28.758552      2.2924931      2.5713353      0              0.74263444     16.294962      522.15912    
     31700   61.101856      21.963076      6.556789       28.519865      3.0242607      1.723968       0              0.69634202     16.518505     -340.28418    
     31800   54.16496       22.382724      5.8123965      28.19512       2.7511357      2.231095       0              0.97782192     16.422671     -1192.69      
     31900   56.671218      21.719482      6.0813409      27.800822      2.5605605      2.2913841      0              0.7875046      16.080032     -589.84801    
     32000   51.677418      21.86593       5.5454605      27.41139       1.869344       3.1190648      0              0.92995408     15.947567     -378.31336    
     32100   54.203408      21.248298      5.8165223      27.06482       1.6372462      2.0353765      0              0.97080226     16.604873      308.05933    
     32200   46.559674      21.773159      4.9962796      26.769438      2.4351587      1.9458549      0              0.87504502     16.5171       -118.91112    
     32300   48.718609      21.287453      5.2279531      26.515406      2.1247774      1.5679405      0              1.1957833      16.398952      720.29363    
     32400   43.211297      21.675334      4.636968       26.312302      1.9523054      2.1042371      0              1.1807769      16.438015      1642.3603    
     32500   42.389936      21.620804      4.5488286      26.169633      1.8741385      2.0750482      0              1.0573792      16.614238      147.60659    
     32600   43.579518      21.43868       4.6764815      26.115162      1.9747808      1.9686051      0              0.99918313     16.496111      227.47042    
     32700   46.486922      21.190929      4.9884727      26.179402      2.2993659      2.0562905      0              0.93838397     15.896888     -616.41235    
     32800   51.513426      20.91127       5.5278626      26.439132      1.8506685      2.2987949      0              0.66984414     16.091962      1612.9892    
     32900   57.679923      20.826518      6.1895842      27.016102      1.8745463      2.3789151      0              0.77324448     15.799812      220.48787    
     33000   59.802185      21.389131      6.4173224      27.806454      2.5496035      2.1676672      0              0.71637188     15.955489     -389.17026    
     33100   56.739885      22.403384      6.0887095      28.492093      3.0659489      2.4151958      0              1.1407603      15.781479     -625.00456    
     33200   57.231028      22.813687      6.1414136      28.955101      3.0829824      3.5003195      0              0.89973839     15.330647     -1235.9407    
     33300   61.788176      22.611956      6.6304374      29.242394      2.8320306      3.5252868      0              1.3198195      14.93482      -1423.078     
     33400   66.728292      22.234163      7.1605571      29.39472       3.1311647      2.906757       0              1.3909943      14.805247     -2390.9178    
     33500   63.467188      22.571826      6.8106107      29.382436      3.2206531      3.1120163      0              1.3270272      14.912129     -1494.3852    
     33600   65.033196      22.226293      6.9786577      29.204951      2.8996693      3.2399428      0              0.91123869     15.175442     -621.4708     
     33700   68.115217      21.645916      7.3093868      28.955303      2.4385704      3.573854       0              0.56429313     15.069199     -741.90638    
     33800   69.395676      21.261565      7.4467918      28.708357      1.775615       3.0867035      0              0.88850497     15.510741      70.480587    
     33900   61.436626      21.873848      6.5927128      28.466561      2.4538605      2.4368984      0              1.2020559      15.781033     -846.72512    
     34000   53.666073      22.410839      5.7588614      28.1697        3.1908656      2.8147024      0              0.73612726     15.669144      1238.5054    
     34100   51.35753       22.347371      5.5111335      27.858505      2.3712213      3.2801868      0              1.0539399      15.642023      1088.6957    
     34200   55.337614      21.637499      5.938233       27.575732      1.7037187      3.0271416      0              0.79969858     16.10694       1076.0015    
     34300   51.959467      21.797252      5.5757269      27.372979      1.8184889      2.5676979      0              0.6684645      16.742601      1466.2906    
     34400   50.222931      21.890294      5.3893807      27.279675      2.3339755      2.5274128      0              0.98363501     16.045271     -70.997148    
     34500   54.756692      21.3989        5.8758947      27.274795      1.9274767      2.4070187      0              1.0654074      15.998998      1200.2144    
     34600   62.887596      20.618636      6.7484152      27.367051      1.8061686      1.7365831      0              1.0886776      15.987207      187.84881    
     34700   61.468323      20.93812       6.5961142      27.534235      2.6850316      1.9272038      0              0.57080477     15.75508      -575.03348    
     34800   58.724822      21.495097      6.3017114      27.796809      2.8627256      2.4334531      0              0.79174843     15.40717      -1338.7052    
     34900   57.523171      21.992335      6.1727633      28.165098      3.0574324      3.0948698      0              0.93474915     14.905284     -782.93399    
     35000   62.870989      21.905235      6.7466331      28.651869      2.8604592      2.7200748      0              0.87765632     15.447045     -439.15922    
     35100   69.106842      21.815561      7.4157973      29.231358      2.497523       2.6713671      0              0.91008178     15.736589     -265.31537    
     35200   76.804767      21.51497       8.2418551      29.756825      3.0350716      2.3213227      0              0.68567259     15.472903      45.134684    
     35300   73.323519      22.223124      7.8682853      30.09141       2.1297487      3.9036897      0              0.77812881     15.411557     -790.72722    
     35400   73.27631       22.381907      7.8632194      30.245126      1.7608701      3.0286409      0              1.2001613      16.392234      2254.1516    
     35500   69.084386      22.897026      7.4133875      30.310414      2.076187       2.979413       0              0.84602921     16.995397      800.67548    
     35600   66.77325       23.205171      7.1653815      30.370553      2.5751777      3.2864409      0              0.7974438      16.546109      437.43351    
     35700   71.217798      22.721845      7.6423223      30.364167      2.8928428      3.17831        0              0.54591169     16.104781      1150.7794    
     35800   69.164296      22.794094      7.4219626      30.216056      2.567645       2.4396575      0              1.5058273      16.280964      614.53627    
     35900   67.315357      22.660387      7.2235545      29.883941      2.4296078      2.8174024      0              1.0918004      16.321576      514.74461    
     36000   65.10043       22.416673      6.9858726      29.402545      1.8740694      4.0257553      0              1.0205525      15.496296     -466.9065     
     36100   63.72151       21.974127      6.8379019      28.812029      2.5661575      3.3150503      0              0.58153007     15.511389      623.8132     
     36200   61.914167      21.531804      6.6439574      28.175761      2.7836817      2.5713846      0              0.54346756     15.63327      -1353.1554    
     36300   63.882683      20.795486      6.8551972      27.650683      2.2759068      2.2059545      0              0.6463436      15.667281     -164.75432    
     36400   57.200266      21.157301      6.1381126      27.295413      1.8540167      3.0834579      0              0.93513641     15.28469      -1327.4176    
     36500   48.665497      21.90217       5.2222537      27.124424      3.0265481      2.4122368      0              0.89984777     15.563538     -2116.5701    
     36600   48.735627      21.865255      5.2297793      27.095034      2.9934232      1.7960424      0              0.98062661     16.095162     -654.46049    
     36700   53.099536      21.478298      5.6980667      27.176364      2.0797202      2.4026161      0              0.67622383     16.319737     -306.3802     
     36800   55.974961      21.355772      6.0066262      27.362398      2.5739595      1.8795809      0              0.92753597     15.974696     -920.35411    
     36900   67.220839      20.415255      7.2134119      27.628667      1.6125282      2.9191535      0              0.26137471     15.622199      178.08682    
     37000   58.311398      21.67808       6.2573473      27.935427      2.3176712      2.4995935      0              0.40389977     16.456915      2241.4263    
     37100   54.215043      22.423118      5.8177708      28.240889      2.6288464      2.8318518      0              0.28724433     16.675175      540.42059    
     37200   54.608087      22.682306      5.8599481      28.542254      2.1300022      3.0161748      0              0.85552934     16.6806        1621.8799    
     37300   53.722938      23.07188       5.7649635      28.836843      2.1032298      4.0057858      0              0.56020582     16.402658      1815.2621    
     37400   57.246847      23.001291      6.1431112      29.144402      2.756174       3.2309821      0              0.57854852     16.435587      351.1939     
     37500   59.969523      22.969279      6.4352792      29.404558      2.9847399      2.5000297      0              0.33494259     17.149567      2385.0869    
     37600   72.920248      21.742347      7.8250107      29.567358      2.5774342      2.5384559      0              0.79018019     15.836277     -1156.8369    
     37700   70.421281      22.082804      7.5568486      29.639652      2.1860745      3.0466121      0              1.1118261      15.738291     -313.40584    
     37800   60.526764      23.212642      6.4950763      29.707719      3.538517       3.1360475      0              0.76152329     15.776554      65.312007    
     37900   62.100796      23.126509      6.6639844      29.790494      2.4958599      3.5008082      0              0.67836091     16.45148      -639.02024    
     38000   68.851665      22.458288      7.3884145      29.846703      3.2727246      2.3058345      0              0.94408604     15.935643     -1226.6482    
     38100   69.270063      22.438292      7.4333124      29.871604      2.9906399      2.8552564      0              0.55614267     16.036253     -780.3491     
     38200   58.526032      23.590279      6.2803795      29.870658      3.6131567      2.9567362      0              0.72926209     16.291124     -358.83748    
     38300   71.603619      22.176607      7.6837243      29.860332      2.3185655      2.8295022      0              0.85606609     16.172474     -679.50816    
     38400   66.104274      22.757386      7.0935943      29.850981      2.0034333      3.4136204      0              1.0944077      16.245925     -396.12447    
     38500   65.206         22.838013      6.9972012      29.835214      2.3575775      3.4193951      0              1.1336017      15.927439     -628.45713    
     38600   69.037056      22.408591      7.4083086      29.816899      2.4134085      2.5767308      0              1.1033696      16.315082      186.99801    
     38700   62.109505      23.168044      6.6649189      29.832962      1.9325053      2.8977334      0              1.5114919      16.826313      592.28398    
     38800   75.614376      21.776826      8.1141153      29.890941      2.2370272      2.187052       0              0.60283154     16.749915     -55.862303    
     38900   71.890803      22.237182      7.7145419      29.951724      2.5376855      3.0371331      0              0.58321326     16.07915       1036.8081    
     39000   77.478231      21.685372      8.3141241      29.999496      2.3627098      2.6612334      0              0.64521545     16.016213     -197.06056    
     39100   70.333419      22.468155      7.5474203      30.015576      2.3087235      2.2695058      0              0.89941718     16.990509      1317.7457    
     39200   70.038224      22.538429      7.5157431      30.054172      1.7323856      3.1594427      0              0.80869588     16.837905      952.2311     
     39300   66.412953      23.02521       7.1267183      30.151928      2.4926757      3.2612357      0              0.91125726     16.360041     -562.8491     
     39400   64.782504      23.369925      6.9517562      30.321681      2.5543437      2.897732       0              1.057291       16.860558      1554.9853    
     39500   77.383005      22.230601      8.3039054      30.534507      2.4733039      2.4393914      0              0.90004306     16.417863     -411.31543    
     39600   74.770938      22.699023      8.0236067      30.72263       2.5803856      2.8102257      0              0.89200982     16.416402      589.4474     
     39700   77.447696      22.546029      8.3108473      30.856876      3.2854512      2.383091       0              0.85602629     16.02146       0.71304085   
     39800   66.23892       23.828859      7.108043       30.936902      3.7658328      3.5211847      0              0.93621757     15.605624     -1130.2184    
     39900   77.064222      22.718446      8.2696971      30.988143      2.3368424      2.6689206      0              1.0992702      16.613413      432.84445    
     40000   65.094485      24.050698      6.9852346      31.035932      3.4820981      3.7300381      0              0.93137997     15.907182     -496.11325    
     40100   55.327675      25.109936      5.9371664      31.047102      4.7530264      3.2242909      0              1.2039765      15.928642     -410.7951     
     40200   72.907757      23.174601      7.8236703      30.998271      3.3442901      2.5871055      0              1.2542326      15.988973     -279.73106    
     40300   68.669577      23.513101      7.3688748      30.881976      2.5930809      2.8393152      0              1.624582       16.456123      1130.0146    
     40400   68.799315      23.339924      7.3827968      30.722721      2.6472289      3.6931425      0              1.0407305      15.958822     -735.10518    
     40500   70.462127      22.929537      7.5612318      30.490769      2.8031616      3.1645766      0              1.0149214      15.946878     -302.8513     
     40600   73.870934      22.233919      7.927028       30.160947      1.6474842      3.1827163      0              0.91641156     16.487307      91.923833    
     40700   63.998527      22.902461      6.8676283      29.77009       2.7228789      2.7585771      0              1.1022123      16.318793     -569.6395     
     40800   61.454427      22.78211       6.594623       29.376733      2.186539       3.2850354      0              1.0563022      16.254234      1032.4842    
     40900   54.772846      23.163446      5.8776282      29.041074      3.2330795      3.3759618      0              0.75162411     15.802781     -1236.6098    
     41000   52.659078      23.112885      5.6508015      28.763687      2.9077262      2.6581344      0              1.076807       16.470217      1102.7578    
     41100   70.227284      20.972868      7.5360309      28.508899      2.1375314      1.9097475      0              0.58913319     16.336456      165.62591    
     41200   65.810766      21.24169       7.0620981      28.303788      2.4140881      1.5528504      0              1.5265883      15.748163     -604.81917    
     41300   51.9284        22.589584      5.5723931      28.161977      2.5589147      3.0435367      0              1.2795043      15.707628     -209.16753    
     41400   61.791507      21.492723      6.6307948      28.123518      2.2688939      3.0436384      0              0.58912438     15.591066     -1071.8183    
     41500   56.92446       22.147317      6.1085161      28.255833      2.398288       2.1955285      0              1.2261304      16.32737      -41.38326     
     41600   55.363037      22.72812       5.9409611      28.669081      2.2378802      3.623168       0              1.0493923      15.817679     -526.40816    
     41700   62.152221      22.730878      6.6695027      29.400381      2.7215419      3.1880356      0              1.7161426      15.105158     -356.45879    
     41800   63.017691      23.505322      6.7623756      30.267697      3.4334257      3.1311444      0              1.8783893      15.062362     -1684.1755    
     41900   64.666056      24.03393       6.9392603      30.973191      2.736709       3.466424       0              1.9970381      15.833759      428.13328    
     42000   74.869289      23.399437      8.0341606      31.433597      2.4554695      2.9926625      0              1.924124       16.027181      442.52162    
     42100   79.227162      23.265045      8.5018004      31.766845      2.9365178      3.4664686      0              0.99259549     15.869463      619.91597    
     42200   71.35816       24.351916      7.6573844      32.009301      2.8222413      4.9359938      0              0.89339491     15.700286      1328.3934    
     42300   81.930066      23.358181      8.7918467      32.150028      3.0956094      3.1188213      0              1.2955599      15.848191      115.16931    
     42400   77.915338      23.811067      8.3610296      32.172097      4.1683513      2.7788724      0              1.1188903      15.744953     -91.165275    
     42500   78.02538       23.698819      8.3728382      32.071657      3.2653704      4.0783761      0              0.88098257     15.47409      -538.63826    
     42600   94.07099       21.752488      10.094679      31.847167      2.9461856      2.9032444      0              1.0443868      14.858671     -660.86718    
     42700   85.476091      22.339454      9.1723677      31.511822      2.0922463      3.3060161      0              1.3631008      15.578091      1408.044     
     42800   59.656497      24.663149      6.4016887      31.064838      3.7846218      3.8487932      0              1.1638954      15.865839      452.31995    
     42900   76.214965      22.394969      8.178564       30.573533      2.8581485      2.7441399      0              1.3219266      15.470754      891.77732    
     43000   66.896704      22.944603      7.1786292      30.123232      3.092972       3.3840752      0              0.98713937     15.480416     -1286.1699    
     43100   59.06832       23.38551       6.3385719      29.724082      3.4974365      3.3964962      0              1.0562941      15.435284     -90.764523    
     43200   62.389058      22.678288      6.6949175      29.373205      2.5836788      2.8543273      0              0.82798105     16.412301     -359.85402    
     43300   64.249815      22.242317      6.8945938      29.136911      2.1429793      2.7949737      0              0.76685114     16.537513      27.842801    
     43400   66.924465      21.845983      7.1816082      29.027592      2.299893       2.3828509      0              1.0614946      16.101745     -6.399548     
     43500   64.5863        22.114661      6.9307017      29.045363      2.7039021      2.5106412      0              0.9709183      15.929199     -605.68416    
     43600   75.848002      21.02665       8.1391855      29.165836      2.2558321      1.962022       0              0.93762767     15.871169      322.96036    
     43700   67.830682      22.163638      7.2788537      29.442492      2.5162813      2.2267781      0              1.1591126      16.261466     -58.486777    
     43800   65.772969      22.886473      7.0580422      29.944515      2.9892444      3.0042771      0              1.4078501      15.485102     -265.69206    
     43900   71.090626      23.160708      7.6286755      30.789383      2.9355483      3.0998027      0              1.2853863      15.839971     -498.40303    
     44000   75.999719      23.74888       8.1554661      31.904346      3.4208795      3.1548201      0              1.2742925      15.898888     -639.001      
     44100   84.198566      23.844661      9.0352775      32.879939      3.0526169      3.43312        0              1.6251136      15.733811     -1182.3112    
     44200   95.800861      23.168536      10.28031       33.448847      2.7383158      2.6844622      0              1.9686836      15.777075     -408.70172    
     44300   89.948326      23.969949      9.6522794      33.622229      3.1476833      3.6986019      0              1.6412866      15.482377     -824.45394    
     44400   84.676783      24.388277      9.0865946      33.474872      4.1258189      2.1086072      0              1.6695829      16.484268      114.5521     
     44500   92.611283      23.150055      9.9380392      33.088094      2.932986       2.4584703      0              1.2282343      16.530365      1993.7432    
     44600   84.514387      23.525242      9.069168       32.59441       2.4864218      3.4669407      0              1.0107321      16.561148      427.44544    
     44700   74.752732      24.092819      8.021653       32.114472      2.936106       3.4154232      0              1.2887751      16.452515      1427.2373    
     44800   71.912108      23.91398       7.716828       31.630808      2.6834805      3.0782262      0              1.2698073      16.882466      909.96719    
     44900   70.033676      23.658669      7.5152551      31.173924      2.2163836      2.8754644      0              1.832845       16.733976     -114.45583    
     45000   72.15845       23.060884      7.7432627      30.804147      2.7805216      3.1155443      0              1.2840232      15.880795      653.09006    
     45100   64.115213      23.706026      6.8801498      30.586176      3.5901446      3.2903243      0              1.3197788      15.505778     -1168.8609    
     45200   67.119027      23.307731      7.2024865      30.510217      2.8264294      4.197917       0              0.56394149     15.719443     -590.17526    
     45300   64.116583      23.662446      6.8802968      30.542742      3.3266401      3.7238221      0              0.87723525     15.734748      17.227051    
     45400   71.7115        22.967404      7.695301       30.662705      4.001632       2.8361999      0              0.76652846     15.363044     -607.72946    
     45500   72.742359      23.068896      7.8059216      30.874817      2.3237693      3.777104       0              1.7415003      15.226522      322.89933    
     45600   80.328941      22.580412      8.6200313      31.200443      3.4274         2.8390957      0              1.3310778      14.982838     -1158.3442    
     45700   72.715125      23.837537      7.8029991      31.640536      3.2296813      2.8150471      0              2.6466353      15.146173     -1016.6167    
     45800   77.289194      23.924254      8.2938386      32.218092      3.0682056      3.9998468      0              1.1829712      15.67323      -726.53926    
     45900   87.206788      23.554062      9.3580873      32.912149      2.8263775      3.4946233      0              1.429433       15.803628      1387.2329    
     46000   81.330963      24.922565      8.7275575      33.650122      3.9693705      4.3965839      0              1.3510356      15.205575     -1285.5803    
     46100   94.377915      24.288339      10.127615      34.415954      3.2486397      3.7697512      0              1.3817636      15.888184      76.057797    
     46200   104.32747      23.84893       11.195293      35.044223      2.4268678      4.4178859      0              0.78116897     16.223007      1663.5884    
     46300   86.39247       26.246533      9.2707036      35.517236      4.686671       3.70131        0              1.7039393      16.154612      1579.9916    
     46400   92.895245      25.758257      9.9685108      35.726768      3.3657503      5.7203533      0              1.2774327      15.394721      1417.2857    
     46500   100.49111      24.75532       10.783617      35.538937      3.5361031      4.9067735      0              0.85899212     15.453451     -662.86717    
     46600   91.973443      24.693961      9.8695931      34.563554      3.8371067      3.9619922      0              1.0520239      15.842838      756.54486    
     46700   92.68366       22.778211      9.9458058      32.724017      2.8635421      3.937975       0              0.71949914     15.257195      165.59645    
     46800   86.298282      21.991892      9.2605963      31.252489      2.6509507      2.7292643      0              1.0293884      15.582289     -245.67829    
     46900   69.123477      23.113822      7.4175824      30.531404      3.3269819      3.1535034      0              1.0840405      15.549296     -1732.2981    
     47000   57.38653       24.036446      6.1581005      30.194547      3.4413959      3.4885825      0              0.64788779     16.45858      -1287.2751    
     47100   56.771892      23.984156      6.0921442      30.0763        3.7809992      2.7350624      0              0.95002678     16.518067     -226.7367     
     47200   62.395869      23.437167      6.6956484      30.132816      2.9384307      3.6949467      0              0.56482658     16.238963     -705.51573    
     47300   62.756769      23.613268      6.7343763      30.347644      3.8092067      2.3811461      0              0.72976499     16.69315      -101.19478    
     47400   55.350443      24.76534       5.9396097      30.70495       3.5194766      3.5761475      0              0.70747243     16.962243      225.83737    
     47500   72.383916      23.438835      7.7674573      31.206292      3.9129296      2.6583793      0              0.62176939     16.245756      1189.3252    
     47600   89.210285      22.180589      9.5730809      31.75367       2.0724472      3.7385197      0              0.51604111     15.853581      27.010672    
     47700   82.954454      23.390343      8.9017729      32.292116      2.919356       3.8022258      0              0.47430776     16.194453     -1590.6502    
     47800   73.334835      24.929244      7.8694997      32.798744      3.0103365      4.4938247      0              0.70165516     16.723428      826.0196     
     47900   67.868184      26.047721      7.2828779      33.330599      4.0331063      4.9326407      0              0.81573503     16.266239     -290.36633    
     48000   83.580368      24.830548      8.9689392      33.799487      3.8318009      3.8570723      0              1.0769776      16.064697      1242.6808    
     48100   83.254527      25.194006      8.9339735      34.12798       3.7699937      3.9754645      0              0.90914101     16.539407      719.90329    
     48200   84.260748      25.247205      9.0419502      34.289155      3.3189239      4.645136       0              0.82818072     16.454964     -171.25415    
     48300   92.60233       24.455746      9.9370784      34.392824      3.6542009      3.1477832      0              1.2700937      16.383668      351.50955    
     48400   92.287676      24.506672      9.9033131      34.409986      3.5440445      3.993234       0              0.93451637     16.034878     -676.85507    
     48500   90.954919      24.47713       9.7602961      34.237426      4.0821032      3.1043495      0              1.1523834      16.138294     -1097.6476    
     48600   84.116219      24.862816      9.0264409      33.889257      3.824665       4.0200267      0              1.2395183      15.778606     -2200.0003    
     48700   81.477415      24.615733      8.7432731      33.359006      4.3218876      3.432305       0              1.1280613      15.733479     -1236.3171    
     48800   73.813836      24.754589      7.9209008      32.67549       3.9241504      4.0148402      0              0.74921871     16.06638      -133.09354    
     48900   71.289063      24.343798      7.6499696      31.993767      4.3706557      3.6676077      0              0.89691523     15.408619     -568.28259    
     49000   71.072426      23.712675      7.6267224      31.339398      3.8816072      3.2087085      0              1.4871582      15.135202     -1195.6986    
     49100   81.021568      22.12743       8.6943565      30.821787      2.8263332      3.0675439      0              0.45334097     15.780212      438.34336    
     49200   71.733953      22.794448      7.6977104      30.492158      3.4594604      2.8681046      0              0.42836331     16.038519      21.514165    
     49300   71.587324      22.672096      7.6819757      30.354071      2.5673811      2.6884772      0              0.88282901     16.533408      498.94059    
     49400   64.616181      23.481355      6.9339082      30.415263      2.5352502      3.599102       0              0.64377977     16.703223      1755.3096    
     49500   67.606457      23.388548      7.2547923      30.64334       2.4874772      3.4231459      0              1.0770723      16.400852      30.359547    
     49600   78.484946      22.54506       8.4221538      30.967214      2.17971        3.0821249      0              1.0618372      16.221388      1468.8016    
     49700   79.099034      22.784226      8.488051       31.272277      2.6982806      2.5863318      0              1.1781639      16.32145       937.93834    
     49800   75.038384      23.482028      8.0523061      31.534334      3.0398404      3.7923791      0              1.0335045      15.616304     -904.19878    
     49900   84.860472      22.676793      9.1063061      31.783099      3.4209102      3.0300668      0              0.68916625     15.53665      -177.08131    
     50000   76.072743      23.86066       8.1633023      32.023962      3.5134472      2.8033868      0              1.4531306      16.090695      943.93178    
     50100   72.896261      24.370927      7.8224367      32.193364      3.9094416      4.0050682      0              0.65929151     15.797126      48.105268    
     50200   90.304102      22.553895      9.6904575      32.244352      3.3291542      2.4242442      0              0.85862608     15.94187       120.49725    
     50300   96.058444      21.907051      10.307951      32.215002      3.1552547      3.1758109      0              0.53898243     15.037003     -1185.3458    
     50400   87.764133      22.722957      9.4178956      32.140853      2.261215       3.4731836      0              1.2455885      15.74297      -647.39169    
     50500   77.336659      23.775683      8.2989321      32.074615      3.4250436      3.2481178      0              1.4134521      15.68907      -858.01528    
     50600   80.309171      23.432579      8.6179098      32.050488      3.8571055      2.5103523      0              1.8941006      15.17102      -2218.7986    
     50700   79.615782      23.48724       8.5435029      32.030743      4.1640218      3.1995491      0              1.1117507      15.011918     -1534.5856    
     50800   88.067285      22.536323      9.4504265      31.986749      3.4639741      3.0455037      0              0.59155683     15.435288     -958.04411    
     50900   78.640753      23.504794      8.4388733      31.943667      2.6856526      3.1581887      0              1.3446028      16.31635       882.12766    
     51000   69.178685      24.489217      7.4235067      31.912724      3.563064       3.6130266      0              1.0600697      16.253057      1708.7883    
     51100   73.618655      24.06877       7.8999562      31.968727      3.8189152      3.4592087      0              1.1213746      15.669272     -486.61494    
     51200   88.312866      22.72296       9.4767797      32.19974       2.4014104      2.8748552      0              1.1940022      16.252692      192.19753    
     51300   90.626039      22.904356      9.7250043      32.62936       2.2361045      2.5112069      0              1.2766244      16.88042       2611.3676    
     51400   80.52816       24.617556      8.6414094      33.258965      2.862512       3.6819287      0              1.0624905      17.010625      1735.0895    
     51500   74.489937      25.947997      7.9934527      33.94145       3.8220191      4.2704839      0              1.4748887      16.380605      845.89812    
     51600   88.266039      25.156411      9.4717546      34.628165      3.5583366      2.9883726      0              1.5374894      17.072212      1251.1991    
     51700   99.576433      24.470696      10.685464      35.15616       3.9433903      2.9260218      0              0.69997168     16.901312      651.27031    
     51800   99.637399      24.802368      10.692006      35.494374      3.8164988      3.1343837      0              0.71987376     17.131612      2054.2482    
     51900   91.925566      25.835263      9.8644555      35.699718      2.7439644      6.2402727      0              0.73517388     16.115852     -208.85617    
     52000   96.714993      25.41234       10.378405      35.790745      4.8873387      3.1579616      0              1.6164625      15.750577     -625.8434     
     52100   101.18619      24.80234       10.858205      35.660545      4.0704522      2.7986908      0              1.419783       16.513414      554.18804    
     52200   99.252942      24.638723      10.65075       35.289473      4.5409605      2.7450177      0              0.95433308     16.398412     -541.40791    
     52300   93.169495      24.775863      9.9979404      34.773803      4.2975533      4.0514534      0              0.63317284     15.793683     -1904.1435    
     52400   92.082562      24.231957      9.8813026      34.11326       4.2053346      2.7023744      0              0.82534378     16.498904     -812.90799    
     52500   93.157786      23.342458      9.996684       33.339142      3.5900782      2.1373685      0              0.41091732     17.204094     -462.31499    
     52600   74.417017      24.68976       7.9856277      32.675388      3.7688434      3.6598212      0              0.39160379     16.869492     -737.06554    
     52700   70.285866      24.715329      7.5423174      32.257647      3.6567077      3.5555282      0              0.9315649      16.571528     -1026.3842    
     52800   77.187895      23.79091       8.2829683      32.073878      3.2056334      3.9622937      0              0.73137814     15.891604     -1025.2526    
     52900   78.042081      23.676796      8.3746303      32.051427      3.2379749      3.1450746      0              0.71592035     16.577827      27.009149    
     53000   70.827851      24.526989      7.6004773      32.127467      3.4818781      2.9224761      0              1.4729786      16.649657      363.38203    
     53100   76.396369      24.074402      8.1980303      32.272432      3.7235323      2.6676063      0              0.7718435      16.91142       1012.7115    
     53200   76.134199      24.328596      8.169897       32.498493      3.1008915      3.709938       0              1.0587987      16.458968     -317.93004    
     53300   100.77094      21.955067      10.813645      32.768712      1.8121483      2.8441233      0              0.70638752     16.592408      807.42964    
     53400   79.334922      24.545298      8.513364       33.058662      2.6775713      4.4554031      0              1.0335226      16.378801      1962.8919    
     53500   82.402766      24.499714      8.8425717      33.342285      3.5128635      4.2135946      0              1.2042934      15.568962     -2038.2975    
     53600   80.388544      24.943391      8.6264272      33.569818      3.8677007      3.2452308      0              1.7047568      16.125703      1156.7251    
     53700   104.38684      22.391354      11.201664      33.593018      3.2501366      2.7539219      0              0.80681514     15.58048       484.10006    
     53800   80.86249       24.849876      8.677286       33.527162      3.9413194      4.0743278      0              1.1623909      15.671838      189.21845    
     53900   88.627475      23.970044      9.51054        33.480584      3.3811052      3.4656076      0              0.65997394     16.463357      1859.9384    
     54000   91.43968       23.678291      9.8123154      33.490606      3.2681889      3.8451523      0              0.89980999     15.66514      -8.0838628    
     54100   86.204587      24.307159      9.250542       33.557701      3.4622461      4.3574668      0              1.226251       15.261195     -2312.8243    
     54200   90.122632      24.040899      9.6709841      33.711883      3.5248321      4.4927858      0              1.3186164      14.704665     -1443.1109    
     54300   102.18331      22.902378      10.965206      33.867584      3.3219203      2.9165359      0              1.2360501      15.427871     -106.20025    
     54400   82.233701      25.143057      8.8244295      33.967486      4.2036788      3.9837322      0              1.776603       15.179043     -1199.9504    
     54500   86.95415       24.67436       9.330977       34.005337      4.5508336      3.0916204      0              1.4126246      15.619282     -56.546896    
     54600   74.853695      26.004719      8.0324873      34.037206      4.5526586      4.6662951      0              1.144073       15.641692     -178.45634    
     54700   93.878709      24.045009      10.074046      34.119055      3.7147674      2.9193558      0              1.4016314      16.009254     -191.11037    
     54800   89.587639      24.687         9.6135745      34.300574      2.5622418      4.0821053      0              1.5409608      16.501692      742.10586    
     54900   96.619454      24.365016      10.368153      34.733169      3.4380711      3.8037007      0              1.4332949      15.689949     -1110.2621    
     55000   96.646113      25.200998      10.371013      35.572012      3.9401685      4.4867455      0              1.1346508      15.639434      274.07766    
     55100   100.23032      25.847361      10.755631      36.602993      3.7467658      4.5858187      0              1.979053       15.535724      567.99764    
     55200   109.8601       25.760545      11.788995      37.54954       4.1130333      3.5371895      0              2.0955246      16.014798      1362.831     
     55300   109.25981      26.451394      11.724579      38.175973      4.4350314      4.3417004      0              2.3705022      15.30416      -1032.6205    
     55400   105.24513      27.073347      11.293767      38.367114      4.5965001      5.0644716      0              1.9353085      15.477067      72.65196     
     55500   103.2714       27.230702      11.081968      38.312669      3.3970171      4.9212511      0              2.33935        16.573083      1482.1276    
     55600   112.65999      25.952519      12.089449      38.041969      3.6776915      4.5374572      0              0.77970062     16.95767      -525.28535    
     55700   89.448959      27.972876      9.5986929      37.571569      4.9888316      5.2726731      0              1.2392161      16.472155      337.6752     
     55800   107.63673      25.406078      11.550407      36.956485      2.9744458      4.9077109      0              0.97745577     16.546465      260.65439    
     55900   113.46396      23.985661      12.175722      36.161383      2.5701017      3.9633167      0              0.77219865     16.680044      725.05546    
     56000   102.74254      24.297906      11.025216      35.323123      3.8924324      3.0299814      0              0.84540497     16.530088      1174.0844    
     56100   80.708168      25.989934      8.6607259      34.65066       3.8123313      5.1501091      0              1.275654       15.751839     -11.57934     
     56200   88.34716       24.707381      9.4804597      34.187841      3.3633985      4.1174498      0              0.9527864      16.273746      122.42931    
     56300   79.525099      25.40476       8.5337717      33.938532      3.4263078      3.8093362      0              1.3668658      16.802251      2161.4733    
     56400   91.286955      24.069127      9.7959266      33.865054      2.9146576      3.5786878      0              1.3177463      16.258036      442.50729    
     56500   79.153568      25.397676      8.4939031      33.89158       3.6124935      4.1719502      0              1.9927346      15.620498     -683.70896    
     56600   87.612578      24.607883      9.4016323      34.009515      3.8695434      3.4372689      0              1.048052       16.253019     -62.16267     
     56700   87.090518      24.794         9.3456105      34.139611      3.8311228      2.5596102      0              1.8511673      16.5521       -834.79973    
     56800   106.47467      22.819167      11.425707      34.244875      2.4495189      2.8317945      0              1.256976       16.280878     -1007.9276    
     56900   85.625238      25.239217      9.1883725      34.427589      3.3173455      4.2212764      0              1.458925       16.24167       447.50132    
     57000   79.731211      26.099448      8.5558894      34.655337      4.0056042      4.40487        0              0.7912368      16.897737     -385.9495     
     57100   75.971004      26.869652      8.1523847      35.022036      4.3471211      3.8478583      0              1.7380881      16.936584      1196.1235    
     57200   97.751821      25.042496      10.489666      35.532162      4.7027795      2.7961049      0              1.4426717      16.10094      -112.33872    
     57300   99.633311      25.411198      10.691567      36.102765      3.9373245      4.4775837      0              1.3451775      15.651113     -1725.7892    
     57400   112.64565      24.600112      12.087911      36.688023      3.2745159      3.3435004      0              1.981679       16.000417      92.948176    
     57500   92.514666      27.373505      9.9276712      37.301176      5.0275636      4.3373282      0              1.600015       16.408598      958.9096     
     57600   103.85329      26.715217      11.14441       37.859627      4.0110449      4.8550243      0              1.3394223      16.509726      687.02544    
     57700   112.54511      26.290541      12.077122      38.367663      3.7874407      4.0456401      0              2.212429       16.245031     -1257.6161    
     57800   106.82694      27.355255      11.463509      38.818765      4.5582352      4.4100784      0              1.5805981      16.806344     -361.2067     
     57900   93.123305      29.225276      9.9929838      39.21826       6.4064741      4.9574559      0              1.304254       16.557092     -2266.668     
     58000   102.62539      28.753951      11.012645      39.766596      5.1851379      5.075288       0              1.7324184      16.761107      448.74912    
     58100   110.62972      28.5717        11.871582      40.443282      6.6467312      3.8664581      0              2.0897082      15.968802     -2530.1852    
     58200   134.87464      26.47601       14.473285      40.949295      5.4071514      3.7406606      0              1.1486369      16.179561     -1342.7882    
     58300   127.65274      27.2685        13.698309      40.966809      4.6876524      4.6368827      0              1.2710947      16.672871      578.80879    
     58400   96.906237      30.003553      10.398927      40.40248       5.3484997      6.1573482      0              2.0331348      16.46457      -1469.2766    
     58500   123.16084      26.327552      13.216287      39.543839      4.1753342      4.3518832      0              1.073817       16.726518      248.81462    
     58600   105.97228      26.993656      11.371797      38.365452      3.5554535      4.8510749      0              1.7754736      16.811654      1261.5648    
     58700   88.52757       27.607736      9.4998194      37.107555      6.5821342      3.2260546      0              1.3960716      16.403475     -578.90078    
     58800   104.65768      24.824701      11.230728      36.05543       4.5798778      2.8729399      0              1.2483606      16.123523     -257.2273     
     58900   107.12913      23.769481      11.495937      35.265418      2.9440439      2.8385145      0              1.4856588      16.501264      1765.4168    
     59000   94.124865      24.636061      10.10046       34.736521      3.2046259      3.3561946      0              1.6262456      16.448995     -421.63021    
     59100   83.194701      25.516608      8.9275536      34.444162      5.1648032      3.5974648      0              0.79906642     15.955274     -518.4299     
     59200   78.347723      25.903311      8.4074284      34.310739      5.2445755      3.703922       0              1.1665166      15.788297      799.21433    
     59300   90.883155      24.512489      9.7525952      34.265084      4.5131915      2.9569868      0              1.3790046      15.663306     -1309.1911    
     59400   105.05603      23.028859      11.273474      34.302333      3.2355884      2.381862       0              1.1663556      16.245053      1608.1751    
     59500   89.217345      24.845236      9.5738385      34.419074      3.716367       2.8485214      0              2.1507478      16.129599      1056.5505    
     59600   93.009828      24.570355      9.9808067      34.551162      4.5942662      3.1925992      0              1.2506405      15.532849     -1478.2091    
     59700   98.518904      24.153591      10.571981      34.725572      2.6141009      3.1486106      0              1.8212644      16.569615      704.65942    
     59800   88.141381      25.593294      9.4583777      35.051671      3.5882723      4.3484127      0              1.3817226      16.274886     -820.32646    
     59900   92.168178      25.73912       9.8904899      35.62961       4.4131969      4.7005051      0              1.0452213      15.580197     -869.00372    
     60000   96.120555      26.111911      10.314616      36.426527      5.2580071      4.3348293      0              0.97614912     15.542925     -1075.6117    
     60100   105.36351      25.995304      11.306469      37.301773      4.8786831      4.2328         0              0.96728481     15.916536     -486.18827    
     60200   112.47451      25.949814      12.069545      38.01936       5.3118495      3.1737849      0              1.4019993      16.062181     -1685.2385    
     60300   99.285976      27.832126      10.654295      38.486421      4.2280592      5.5613285      0              2.0612069      15.981532      846.26786    
     60400   122.89296      25.60637       13.187541      38.793911      3.7726824      5.2358169      0              1.0466467      15.551224     -1244.9706    
     60500   109.56312      27.230373      11.757126      38.987499      3.7580979      5.1802749      0              1.8406533      16.451347      392.46966    
     60600   89.578418      29.420203      9.612585       39.032788      6.0803894      4.3110891      0              2.2685525      16.760172      1000.5254    
     60700   94.531179      28.722865      10.144062      38.866927      5.2410349      5.9366155      0              1.496357       16.048858     -1143.0656    
     60800   108.61555      26.750621      11.655444      38.406065      4.5991961      5.1012235      0              1.060148       15.990054      70.118706    
     60900   97.877313      27.101232      10.503132      37.604364      4.2125594      4.7417356      0              1.7257763      16.42116      -323.72216    
     61000   88.764233      26.902166      9.5252155      36.427382      5.6203555      3.3739279      0              1.5643411      16.343542     -1272.622     
     61100   92.394502      25.125409      9.9147765      35.040185      3.9141118      3.4754741      0              1.5480117      16.187811      169.73083    
     61200   78.510858      25.650581      8.4249344      34.075515      3.9992997      3.880029       0              1.6227809      16.148471     -1169.04      
     61300   90.805015      23.950075      9.74421        33.694285      3.3646014      3.088736       0              0.78906987     16.707667     -133.34571    
     61400   84.871753      24.516433      9.1075167      33.62395       3.8388111      3.1910558      0              0.88945303     16.597113     -1437.5813    
     61500   88.182587      24.273504      9.4627995      33.736304      3.3425019      3.7116408      0              1.3735611      15.845801      851.21542    
     61600   97.402664      23.471252      10.452198      33.92345       3.2514235      3.3855485      0              1.2439015      15.590379     -431.18557    
     61700   86.658409      24.870776      9.2992412      34.170017      5.212607       3.4416771      0              0.77215672     15.444335     -1605.2436    
     61800   83.14277       25.590872      8.921981       34.512853      3.4815775      4.9697783      0              1.1873481      15.952168     -216.66471    
     61900   103.08719      23.935284      11.0622        34.997484      2.2600676      4.4250102      0              1.2248929      16.025314      1441.746     
     62000   115.11776      23.361171      12.35319       35.714361      3.6691286      3.2331207      0              0.80329338     15.655628     -539.39837    
     62100   101.95672      25.508852      10.94089       36.449743      3.6615047      5.1530628      0              1.0690609      15.625224      351.26328    
     62200   116.08803      24.488901      12.45731       36.94621       4.7608128      2.2735159      0              0.9861044      16.468467      1705.2651    
     62300   102.25681      26.263339      10.973093      37.236432      3.8661184      4.1949034      0              1.261744       16.940573      344.02043    
     62400   114.43269      25.140977      12.279676      37.420654      3.6119487      4.3226114      0              0.98549352     16.220924      2698.2848    
     62500   94.438729      27.44716       10.134141      37.581301      4.4625227      5.8408149      0              1.1935651      15.950257      264.89897    
     62600   87.94962       28.335134      9.4378         37.772934      5.0288207      5.0604843      0              2.1143145      16.131515      720.71481    
     62700   117.43699      25.275089      12.602065      37.877154      5.3157802      2.4921517      0              1.6856694      15.781488      414.06314    
     62800   111.81933      25.78659       11.999239      37.785829      5.0927949      3.6502343      0              1.5728027      15.470759      850.71195    
     62900   93.225401      27.483507      10.00394       37.487447      3.7953082      6.3626195      0              1.9073198      15.41826       592.25871    
     63000   111.93326      24.987527      12.011464      36.998991      3.2721399      3.1501281      0              1.9665223      16.598737     -148.01492    
     63100   102.70593      25.267001      11.021287      36.288288      3.9259987      3.6352678      0              1.3423265      16.363408      574.93039    
     63200   90.310722      25.53728       9.6911679      35.228448      4.7943065      3.2160267      0              1.6696889      15.857258     -1955.6361    
     63300   78.696174      25.641432      8.4448205      34.086253      4.4577989      3.9725285      0              1.2731566      15.937948     -1774.9233    
     63400   76.975586      24.959917      8.2601856      33.220103      3.0471387      2.9410609      0              1.677206       17.294512      414.87005    
     63500   74.086449      24.825489      7.9501547      32.775644      3.1805025      3.8316882      0              1.0763205      16.736978     -453.86136    
     63600   73.500748      24.793555      7.8873037      32.680858      3.6735149      3.6843657      0              1.1571101      16.278564      252.15375    
     63700   85.035376      23.703788      9.1250749      32.828863      3.2301091      2.3104538      0              2.0260481      16.137177      51.604684    
     63800   97.029717      22.710985      10.412178      33.123162      2.4222868      3.136792       0              0.8634451      16.288461      304.41546    
     63900   81.847447      24.734276      8.7829809      33.517257      3.1370729      3.1315007      0              1.7705929      16.695109     -28.677586    
     64000   93.279273      24.020381      10.009721      34.030102      2.7417627      3.1355607      0              2.1589084      15.984149      926.25114    
     64100   89.379352      25.026127      9.5912233      34.61735       4.0020038      3.2006967      0              2.0964114      15.727015     -158.54489    
     64200   93.70703       25.084654      10.055623      35.140277      4.2635334      3.7790773      0              1.0548111      15.987232     -130.35903    
     64300   90.119944      25.907564      9.6706957      35.578259      3.6910672      4.5795791      0              1.9738554      15.663062      475.14631    
     64400   94.586988      25.780155      10.15005       35.930205      3.4908879      3.8500923      0              2.1416983      16.297476      320.75589    
     64500   104.5446       25.07525       11.218593      36.293843      4.3426844      3.208216       0              1.6118322      15.912517     -629.88393    
     64600   114.11105      24.369509      12.245161      36.614669      3.6803683      3.1786335      0              1.2149108      16.295596     -803.96266    
     64700   103.79213      25.720994      11.137847      36.858841      2.7299196      5.2880076      0              1.6634948      16.039572     -610.24634    
     64800   115.0703       24.749213      12.348097      37.097311      2.8579893      4.2659672      0              1.5776254      16.047632     -432.89945    
     64900   104.628        26.086227      11.227543      37.31377       3.167971       4.8319363      0              1.6359128      16.450407     -521.71009    
     65000   102.15275      26.546775      10.961926      37.508701      4.2531084      4.4387465      0              2.0297828      15.825137      44.58561     
     65100   116.73599      25.157508      12.526841      37.68435       3.8143954      4.1127191      0              1.2549009      15.975493     -928.28755    
     65200   100.08515      27.085008      10.740053      37.825062      4.3033951      3.467135       0              2.7626776      16.551801     -726.87583    
     65300   106.90358      26.551276      11.471734      38.023009      4.4042906      3.4109677      0              1.9165944      16.819423      532.73091    
     65400   110.52064      26.515361      11.859877      38.375238      4.8981387      4.1673021      0              1.6840245      15.765896     -965.32776    
     65500   118.08916      26.261105      12.672049      38.933154      3.5073667      5.4592885      0              0.89108775     16.403362      806.27131    
     65600   102.28385      28.722307      10.975994      39.698301      4.6823114      6.0772137      0              1.1399751      16.822807      860.52439    
     65700   117.10756      28.111863      12.566714      40.678577      5.1313239      4.2172084      0              1.6118522      17.151478      1347.9699    
     65800   121.21414      28.649256      13.007388      41.656644      5.4583269      5.2518102      0              1.1311641      16.807955      270.04836    
     65900   131.85784      28.203163      14.149554      42.352717      5.6675883      4.0971427      0              1.5874756      16.850957      387.41139    
     66000   133.57767      28.371434      14.334108      42.705542      4.8567271      4.1848044      0              2.0016685      17.328234      188.19188    
     66100   132.15067      28.521853      14.180978      42.702831      3.3291972      6.0512349      0              1.6278876      17.513534      1419.794     
     66200   116.42675      29.957473      12.493656      42.45113       6.1344534      4.8940308      0              2.3909017      16.538088      537.88181    
     66300   110.7768       29.981341      11.887366      41.868707      4.8964036      5.9908409      0              3.1305896      15.963507     -111.42552    
     66400   126.10409      27.314395      13.532124      40.846519      4.7935854      3.8535498      0              2.1428687      16.524391     -50.176593    
     66500   117.4649       26.842272      12.60506       39.447332      3.5129604      4.6758759      0              2.3243914      16.329044     -278.71428    
     66600   97.697004      27.754273      10.483784      38.238057      4.2081223      6.4944589      0              1.327056       15.724636      455.78953    
     66700   118.68946      24.613283      12.736466      37.349749      4.5450667      2.2896156      0              1.3148384      16.463762     -249.13196    
     66800   113.58018      24.546414      12.188194      36.734608      3.5276161      3.8163345      0              0.60195748     16.600505     -286.44977    
     66900   100.14799      25.676473      10.746797      36.423271      3.3085429      3.673138       0              1.7952391      16.899553      566.32525    
     67000   94.899208      26.186127      10.183555      36.369681      4.462373       3.6171511      0              0.97414537     17.132457      949.96729    
     67100   95.441206      26.259892      10.241716      36.501608      4.6176688      3.3523047      0              1.2055472      17.084372     -1004.3026    
     67200   93.447487      26.744989      10.027772      36.77276       4.1798887      4.3324474      0              1.3273526      16.9053       -1392.0739    
     67300   79.582453      28.610731      8.5399263      37.150658      6.1764925      4.2464737      0              1.2226757      16.965089     -1187.3898    
     67400   104.76557      26.463807      11.242306      37.706113      3.329001       3.1506213      0              2.1298306      17.854354     -36.335724    
     67500   113.09763      26.30586       12.136412      38.442272      2.8485562      3.6887047      0              1.6350784      18.133521      776.39992    
     67600   105.89115      27.893956      11.36309       39.257046      4.2794263      3.5014182      0              3.0761504      17.036961      507.16714    
     67700   105.18896      28.661609      11.287739      39.949348      3.9721756      5.8984325      0              2.0280939      16.762907      1092.9272    
     67800   103.98424      29.263707      11.158462      40.422169      5.3418379      4.829198       0              1.5910073      17.501663      1685.5286    
     67900   121.92095      27.585596      13.083235      40.66883       5.2881127      3.0804673      0              1.9078815      17.309134      1978.5215    
     68000   116.37092      28.204448      12.487666      40.692114      5.442546       4.3119486      0              2.2775776      16.172376     -159.34022    
     68100   139.395        25.477774      14.958361      40.436135      4.7169493      3.451295       0              1.7385756      15.570954     -312.18077    
     68200   118.89112      27.184485      12.758107      39.942592      4.663875       3.449974       0              2.5783862      16.49225       1029.7041    
     68300   118.05979      26.682414      12.668897      39.351311      4.0661847      4.3758676      0              2.1026243      16.137737      818.52827    
     68400   128.66985      24.914875      13.807454      38.722329      3.818084       4.1396779      0              1.8634586      15.093655     -1935.2328    
     68500   108.48893      26.425199      11.641857      38.067056      3.8907438      5.8798497      0              1.3447776      15.309828     -162.76028    
     68600   101.78999      26.537723      10.922999      37.460721      4.9894936      4.0204017      0              2.0022347      15.525593     -1191.0167    
     68700   103.00154      25.994506      11.053009      37.047515      5.1268901      3.9318516      0              1.4448996      15.490865     -1157.4931    
     68800   83.937123      27.829711      9.0072224      36.836933      5.3728291      4.6598636      0              1.9739448      15.823073     -166.62623    
     68900   90.669949      27.075583      9.7297163      36.805299      5.7749227      4.7190849      0              0.80768582     15.773889     -446.33813    
     69000   108.60283      25.262458      11.654078      36.916537      3.581981       4.233684       0              1.743001       15.703793     -432.24739    
     69100   107.15354      25.613748      11.498557      37.112305      4.1344028      3.4509164      0              2.6598621      15.368567     -326.66569    
     69200   99.997575      26.595143      10.730656      37.325799      4.5453821      4.7854485      0              1.6050114      15.659301     -1426.8048    
     69300   116.25681      25.071491      12.475421      37.546912      4.5855495      3.827517       0              1.2974761      15.360948     -826.54232    
     69400   121.12522      24.828171      12.997846      37.826018      3.4786306      3.8188733      0              1.7453377      15.78533       860.01193    
     69500   107.66388      26.666855      11.553321      38.220176      5.0974821      4.1799911      0              0.93738599     16.451996      1796.8472    
     69600   124.84178      25.212461      13.396667      38.609128      3.3787807      4.3929295      0              1.4791697      15.961581      2131.0506    
     69700   108.08228      27.363193      11.598219      38.961412      4.5493054      4.9130272      0              2.0137628      15.887098      859.76949    
     69800   105.7685       27.962799      11.349929      39.312728      5.4680968      4.9317426      0              1.5924877      15.970472      817.8459     
     69900   118.0027       27.065583      12.662771      39.728354      4.358016       4.83126        0              1.6031358      16.273171      609.2788     
     70000   128.77367      26.420369      13.818595      40.238964      4.4031357      3.718728       0              2.5201799      15.778326     -636.92738    
     70100   124.46094      27.524843      13.355799      40.880642      5.0026798      4.4187691      0              2.2064599      15.896935     -157.82441    
     70200   126.26836      27.951862      13.549752      41.501614      5.3104518      3.5813889      0              2.0901763      16.969845      157.16       
     70300   124.36166      28.85207       13.345146      42.197216      6.3186621      3.246677       0              2.3662424      16.920489     -1040.4427    
     70400   123.51451      29.821046      13.254239      43.075285      6.0675732      4.5775992      0              2.1192076      17.056666      741.88298    
     70500   122.88255      30.874274      13.186423      44.060698      6.0832006      4.9273808      0              2.5953443      17.268349      952.76181    
     70600   148.3645       28.934387      15.92087       44.855256      4.0129277      3.7332862      0              3.6830613      17.505112      1243.3314    
     70700   136.78598      30.486234      14.678389      45.164622      4.4235964      7.1913664      0              1.8842422      16.987029     -656.95659    
     70800   135.52173      30.383925      14.542723      44.926647      5.4781101      5.8186878      0              2.1197596      16.967367     -185.74616    
     70900   110.4347       32.413403      11.850655      44.264058      7.2806658      5.7967001      0              2.5628024      16.773235     -435.37126    
     71000   129.52278      29.131394      13.898981      43.030375      5.9408091      5.101501       0              1.8816431      16.207441     -2107.5513    
     71100   132.96341      27.176948      14.268192      41.445141      5.1391675      3.3510669      0              2.0188124      16.667901      157.92658    
     71200   123.88775      26.916981      13.294291      40.211272      4.0292706      4.7092394      0              1.8146783      16.363793     -323.73036    
     71300   115.79848      26.958128      12.426237      39.384366      5.0423774      4.4936312      0              1.3213425      16.100777     -529.16096    
     71400   112.43779      26.760578      12.065605      38.826182      3.7956611      4.9409561      0              1.1180488      16.905912      1516.5695    
     71500   91.675204      28.639936      9.8375893      38.477525      3.6939303      7.3512491      0              1.0292199      16.565537      491.05725    
     71600   90.194633      28.611737      9.6787104      38.290448      4.9106484      4.8136383      0              1.8969182      16.990532     -690.82715    
     71700   101.37651      27.398016      10.878629      38.276645      5.6114521      3.9513675      0              1.3492798      16.485917      248.17249    
     71800   112.13661      26.321325      12.033286      38.35461       3.4926489      5.580247       0              1.2497691      15.99866       441.22533    
     71900   126.58614      24.897672      13.583853      38.481524      3.4718318      3.3564554      0              1.3289883      16.740396      279.32231    
     72000   106.88051      27.170902      11.469258      38.64016       4.0781609      4.1168744      0              2.3673877      16.608479      1392.3967    
     72100   120.63116      25.907242      12.944828      38.852071      3.0612548      4.4865885      0              1.4381271      16.921272      1874.4636    
     72200   138.27546      24.373013      14.838223      39.211236      2.7492777      2.9778929      0              1.5546568      17.091185      1822.0653    
     72300   100.19136      28.92723       10.751451      39.678681      5.1863101      4.4651058      0              2.486646       16.789168     -1221.2695    
     72400   119.42434      27.414644      12.815326      40.22997       4.6704816      4.4785879      0              0.95253722     17.313037      884.30831    
     72500   121.34891      27.923457      13.02185       40.945306      6.1502724      3.6420973      0              0.74231995     17.388767      17.638543    
     72600   135.83755      27.187714      14.576614      41.764327      4.417281       3.7840832      0              1.6659736      17.320376     -252.70625    
     72700   133.60857      28.231572      14.337423      42.568995      5.1707897      4.9242646      0              1.1992051      16.937313      1622.7967    
     72800   127.70414      29.557781      13.703824      43.261606      6.51527        4.7079814      0              0.83347301     17.501057     -636.59661    
     72900   131.68056      29.558781      14.130531      43.689312      4.8895504      4.8471281      0              1.34352        18.478583      1021.3723    
     73000   133.699        29.605688      14.347128      43.952816      5.960759       4.7892452      0              2.2057044      16.649979     -1933.2323    
     73100   149.96752      27.910241      16.092889      44.00313       3.806871       6.3626164      0              1.2736227      16.467131     -1033.0273    
     73200   168.7103       25.388456      18.104161      43.492617      3.3710425      4.5614522      0              1.0510991      16.404863      922.13142    
     73300   123.7904       28.925422      13.283844      42.209266      6.2524591      3.8000674      0              2.5750373      16.297858     -1165.6459    
     73400   100.78995      29.780993      10.815685      40.596679      5.4362272      6.50348        0              1.2746808      16.566605      1198.2225    
     73500   86.3662        29.99466       9.2678846      39.262545      6.4414668      5.810571       0              2.0916437      15.650979     -1311.0791    
     73600   113.57499      26.088282      12.187637      38.275919      4.98796        3.9541166      0              0.99791607     16.148289      397.93671    
     73700   115.98775      25.147267      12.446548      37.593815      4.2134368      4.026276       0              0.64122961     16.266325     -577.49814    
     73800   105.39139      25.865618      11.309462      37.17508       4.0691001      3.4755883      0              1.5648408      16.756088      837.79023    
     73900   99.033348      26.360374      10.627186      36.98756       3.950737       5.1187306      0              1.4312628      15.859644     -1314.6836    
     74000   114.31795      24.737044      12.267364      37.004408      4.0667714      2.7705151      0              1.4849737      16.414784     -29.660019    
     74100   103.97667      26.013775      11.157649      37.171424      4.8506958      2.9166517      0              1.5390007      16.707426      1771.1939    
     74200   83.50163       28.522777      8.96049        37.483267      3.139472       6.4291464      0              2.9045335      16.049625     -382.40253    
     74300   94.792936      27.776252      10.17215       37.948403      5.0765442      4.6300357      0              2.3451034      15.724569      1640.3123    
     74400   115.97358      26.130109      12.445027      38.575136      4.8058788      4.4772859      0              1.0006085      15.846336     -448.7989     
     74500   115.54085      26.922521      12.398592      39.321113      4.8697922      3.6618952      0              1.6333649      16.757469      184.72337    
     74600   119.63248      27.291862      12.837662      40.129523      4.9981202      3.8639542      0              2.0742146      16.355573      247.31686    
     74700   119.44991      28.110445      12.818069      40.928514      3.9769029      4.9005765      0              2.79846        16.434505      736.55962    
     74800   129.8951       27.665685      13.938934      41.60462       5.3355049      4.6272566      0              1.5221675      16.180756      385.105      
     74900   140.97754      26.96331       15.128182      42.091492      4.7438585      3.8306839      0              1.9270004      16.461767     -1754.2994    
     75000   136.01902      27.757972      14.596087      42.354059      5.2575534      4.7655884      0              1.7807551      15.954075      811.62502    
     75100   136.33573      27.738297      14.630073      42.36837       4.5970485      6.4468731      0              0.80211697     15.892258     -115.10307    
     75200   134.45739      27.769106      14.42851       42.197616      4.9391905      5.0855341      0              2.3821136      15.362268     -1384.3358    
     75300   124.29076      28.517233      13.337538      41.854771      5.1178617      4.9508704      0              1.7744932      16.674008      662.37846    
     75400   109.10446      29.469422      11.707908      41.17733       5.673034       5.7610535      0              1.9847145      16.05062       115.32217    
     75500   103.65281      28.909007      11.122896      40.031903      4.7721008      5.8623266      0              2.4151273      15.859453     -96.689413    
     75600   100.57913      27.62288       10.793062      38.415942      4.5007904      4.3993753      0              1.9915617      16.731153     -1083.584     
     75700   94.460375      26.732669      10.136464      36.869132      4.4637396      3.3919941      0              1.6822566      17.194678      885.34379    
     75800   97.046494      25.572624      10.413978      35.986602      3.2882052      5.1765216      0              1.2961621      15.811736     -614.93869    
     75900   89.200418      26.142424      9.5720221      35.714446      3.9129299      4.1779203      0              2.200137       15.851437      1167.1796    
     76000   77.870136      27.476278      8.356179       35.832457      4.7546426      3.4627473      0              2.2484247      17.010464      1673.6893    
     76100   81.971366      27.404353      8.7962786      36.200632      5.6953121      3.619255       0              1.427111       16.662675     -1201.7188    
     76200   87.753526      27.384767      9.4167573      36.801525      4.9268677      5.4612532      0              1.0876716      15.908975      878.0554     
     76300   86.96051       28.183829      9.3316595      37.515489      4.8479545      5.8084757      0              1.8841149      15.643284     -1444.3136    
     76400   107.16473      26.873824      11.499757      38.373582      4.9357491      4.0669641      0              1.4334109      16.4377       -522.22873    
     76500   111.10176      27.292727      11.922237      39.214964      4.5391372      4.4613222      0              1.7021452      16.590122     -1917.22      
     76600   116.54804      27.523326      12.506673      40.029999      3.6870555      5.9799805      0              2.2037149      15.652575      1460.8508    
     76700   124.09426      27.368869      13.316451      40.68532       3.5849315      5.625489       0              2.3789877      15.779461     -137.9361     
     76800   127.92444      27.538933      13.727465      41.266398      5.227179       4.5491028      0              2.1639735      15.598678     -1335.9332    
     76900   122.67519      28.563969      13.164171      41.72814       3.245339       6.027313       0              2.7876337      16.503683      428.81918    
     77000   152.63035      25.697242      16.378635      42.075877      3.4270207      5.1036673      0              1.4194457      15.747108     -167.76863    
     77100   132.99233      28.014655      14.271295      42.28595       4.3898814      5.3853834      0              2.6485926      15.590797     -859.28399    
     77200   137.85463      27.599851      14.793064      42.392915      4.3968283      4.7884024      0              1.3658816      17.048739      2811.3319    
     77300   114.61166      30.108603      12.298881      42.407485      4.8488978      6.3216286      0              1.9841428      16.953934      286.5187     
     77400   129.39894      28.478022      13.885692      42.363714      3.9956717      6.2138001      0              2.11919        16.14936       526.78676    
     77500   127.00675      28.574351      13.628988      42.203338      5.9498082      4.8531622      0              2.497898       15.273482     -561.66963    
     77600   134.29219      27.461357      14.410782      41.872139      3.6066058      5.0241847      0              2.5551065      16.27546       1777.7191    
     77700   144.87782      25.654723      15.546718      41.201441      3.8840328      4.1917548      0              1.7104123      15.868523     -970.09049    
     77800   132.30939      25.93414       14.19801       40.13215       4.6139126      3.2087115      0              2.8222893      15.289226     -1750.849     
     77900   117.41658      26.298471      12.599875      38.898345      5.2632867      3.3915885      0              1.8028297      15.840766      959.8334     
     78000   89.120361      28.239556      9.5634313      37.802988      5.2512815      5.0705397      0              1.9268918      15.990843      362.36255    
     78100   100.92681      26.176867      10.830371      37.007238      5.3380596      2.313854       0              2.2070912      16.317862     -973.72459    
     78200   99.975311      25.850075      10.728267      36.578342      4.784487       3.7250104      0              1.7673372      15.573241     -453.42213    
     78300   93.927821      26.333557      10.079316      36.412873      5.596611       4.8356426      0              0.98397126     14.917333     -1113.3401    
     78400   104.53511      25.26736       11.217575      36.484934      5.0287271      3.4504454      0              0.97641842     15.811769     -1580.9881    
     78500   101.01847      25.924471      10.840207      36.764678      3.8973613      4.1335528      0              1.1669111      16.726646      527.034      
     78600   118.11511      24.600566      12.674834      37.2754        2.4874693      3.9661316      0              1.61831        16.528655      629.95193    
     78700   125.90178      24.443324      13.510414      37.953738      3.0501156      4.2397506      0              1.1807996      15.972659      341.75353    
     78800   107.40627      27.22199       11.525677      38.747667      4.2519928      4.2991277      0              1.7830762      16.887794      2642.9897    
     78900   103.55041      28.39465       11.111907      39.506557      5.2833805      3.3140673      0              2.021427       17.775775      1054.2506    
     79000   115.89915      27.680869      12.437041      40.11791       4.6330865      4.2762294      0              2.3827255      16.388828      216.19986    
     79100   93.284804      30.583514      10.010314      40.593828      4.9015822      6.4049802      0              2.7469191      16.530032      1793.5993    
     79200   124.95549      27.560373      13.408869      40.969242      4.3487139      4.4550128      0              2.9548641      15.801782      409.45869    
     79300   130.24081      27.292332      13.976032      41.268364      4.0496376      4.6894918      0              2.4275917      16.125611     -823.91021    
     79400   135.78255      26.977764      14.570712      41.548476      3.7142197      4.7375362      0              1.5068322      17.019176      1237.9985    
     79500   134.64779      27.345809      14.448941      41.79475       4.6597567      5.4771798      0              1.5143322      15.69454      -1030.2237    
     79600   133.6615       27.764488      14.343103      42.107591      6.1649105      3.3186585      0              1.5413562      16.739562     -974.20597    
     79700   132.62414      28.157735      14.231785      42.389519      5.6479718      3.6985354      0              1.8346595      16.976568     -1091.5557    
     79800   137.5253       27.84433       14.757725      42.602055      6.2556398      3.9171125      0              1.6307365      16.040841     -1181.9196    
     79900   111.42686      30.737747      11.957123      42.694869      7.9776697      5.1578776      0              2.1181001      15.484099     -443.36196    
     80000   132.85788      28.460912      14.256868      42.717781      4.3143925      5.4807832      0              2.2487044      16.417032     -1491.9107    
     80100   136.82062      27.999328      14.682106      42.681434      3.7632993      4.2751613      0              2.0861285      17.874739      231.43322    
     80200   128.19376      28.875928      13.756365      42.632294      4.735461       4.8406181      0              2.9159904      16.383859     -788.57618    
     80300   134.05932      28.114137      14.385793      42.49993       4.5804169      4.4150738      0              2.785804       16.332842     -767.4341     
     80400   124.7698       28.875065      13.388943      42.264008      5.9628087      3.8796497      0              2.1918318      16.840775     -578.28886    
     80500   119.25577      29.050065      12.797237      41.847302      5.9782811      3.4145916      0              1.7651603      17.892032      2158.0406    
     80600   111.00684      29.361173      11.912051      41.273225      5.1796382      5.2039835      0              2.7714935      16.206058     -323.5222     
     80700   121.02651      27.614024      12.987253      40.601278      3.7766018      5.9508388      0              2.1581048      15.728479      536.59118    
     80800   131.36944      25.76002       14.097145      39.857164      3.9016786      3.4789457      0              1.7441184      16.635277      1474.1754    
     80900   124.66604      25.799576      13.377808      39.177384      3.4617449      4.3317917      0              1.3534658      16.652574      2004.1076    
     81000   108.44572      26.993843      11.637219      38.631062      3.8590084      4.8291939      0              2.2247959      16.080845      960.44619    
     81100   93.145167      28.290353      9.9953298      38.285683      4.6823671      6.3120578      0              2.0578166      15.238112     -428.48708    
     81200   119.32538      25.410607      12.804707      38.215313      4.6511629      3.6777652      0              1.1027999      15.978879      918.5274     
     81300   102.52541      27.380239      11.001916      38.382155      4.4023942      4.7218939      0              2.5323264      15.723625     -941.7251     
     81400   115.86398      26.403454      12.433267      38.836721      3.0247307      3.7988304      0              3.6699982      15.909895      557.918      
     81500   116.07714      27.136204      12.45614       39.592344      5.0084928      4.5559376      0              2.5089706      15.062802     -1376.7079    
     81600   117.65423      28.046669      12.625377      40.672046      4.6849541      4.3713371      0              3.9457366      15.044642     -2575.3893    
     81700   128.84049      28.171418      13.825765      41.997183      3.3675733      4.3836744      0              3.8527772      16.567394      947.24644    
     81800   144.90403      27.575415      15.54953       43.124945      4.7292026      4.9379075      0              2.1201386      15.788167     -971.01229    
     81900   131.45015      29.845819      14.105805      43.951624      7.5365288      5.5486911      0              1.8849523      14.875647     -1472.7767    
     82000   114.80939      32.051557      12.3201        44.371657      7.8362358      5.5096281      0              3.3231692      15.382524      508.5815     
     82100   146.70166      28.778439      15.742432      44.520871      5.3884641      4.3396039      0              2.6627417      16.387629      765.3966     
     82200   144.61014      28.97126       15.517993      44.489253      4.6931194      5.3481432      0              2.4351249      16.494873     -648.14531    
     82300   156.49607      27.441821      16.793462      44.235283      4.577272       4.7924795      0              2.3248745      15.747195      1649.648     
     82400   127.2609       30.179339      13.65626       43.8356        5.5378734      6.1537798      0              3.1251162      15.36257      -1387.112     
     82500   123.08284      30.203115      13.207916      43.411031      3.28613        6.2951248      0              3.4145283      17.207332      1332.9615    
     82600   147.90207      27.173622      15.871247      43.044869      3.9030628      3.6460308      0              2.9852195      16.639308      771.71308    
     82700   104.50488      31.530619      11.214331      42.74495       6.5707943      6.3976659      0              2.4703133      16.091846      774.98035    
     82800   128.6627       28.731294      13.806687      42.53798       5.0922654      4.8371114      0              2.5905026      16.211414      1831.2339    
     82900   123.62294      29.121742      13.265874      42.387616      5.0431498      5.1927256      0              1.896521       16.989346      173.13728    
     83000   128.62826      28.521034      13.802991      42.324025      5.8537165      4.707952       0              1.8260332      16.133332     -634.94676    
     83100   110.53648      30.461175      11.861577      42.322751      5.2152411      5.6873732      0              3.5089354      16.049625     -74.151283    
     83200   122.73226      29.26333       13.170296      42.433626      5.5189118      3.7077458      0              3.6489487      16.387724     -412.72967    
     83300   122.23063      29.57468       13.116466      42.691147      6.1656624      3.9450629      0              2.2780748      17.18588      -2093.2274    
     83400   128.28709      29.416536      13.766381      43.182917      6.376653       3.8662715      0              2.8646685      16.308943     -398.77301    
     83500   124.28565      30.524848      13.336989      43.861837      6.7524952      5.4456548      0              3.2888478      15.03785      -994.89212    
     83600   131.94528      30.480487      14.158937      44.639425      7.2756494      5.4707314      0              1.8381601      15.895946     -508.05852    
     83700   146.57714      29.722722      15.729071      45.451793      6.4602787      3.7533313      0              1.8987727      17.610339     -210.57929    
     83800   173.21753      27.51181       18.587828      46.099638      5.7119237      4.2850014      0              1.6548876      15.859997     -1153.6626    
     83900   138.83485      31.467561      14.898251      46.365812      6.9636229      6.8588564      0              1.79581        15.849271      763.2195     
     84000   174.45552      27.582269      18.720675      46.302944      6.1630866      3.7589914      0              2.512804       15.147387     -3432.7612    
     84100   145.35001      30.177592      15.597388      45.77498       5.2185862      5.0618072      0              2.6178096      17.279389      2631.2158    
     84200   139.3507       30.065533      14.953606      45.019139      6.4500444      5.8167266      0              1.8570534      15.941708     -1910.9062    
     84300   147.15017      28.186578      15.790561      43.977139      4.2504862      5.5232936      0              2.3864678      16.026331      1404.9023    
     84400   122.07447      29.824332      13.099709      42.924041      5.4466184      6.1341736      0              2.3251088      15.918431      1107.9669    
     84500   117.70583      29.389263      12.630914      42.020176      4.4251009      5.5349156      0              2.9353308      16.493916     -299.35945    
     84600   134.54544      26.88752       14.437958      41.325479      5.2784872      4.3690823      0              0.65872861     16.581222      351.43626    
     84700   118.06399      28.181959      12.669347      40.851306      5.0957289      5.9924916      0              1.3384905      15.755248     -898.87427    
     84800   116.30573      28.161692      12.480671      40.642362      6.5909769      4.669133       0              1.3248662      15.576716     -836.7837     
     84900   110.30923      28.801912      11.837191      40.639102      5.162661       4.6048121      0              1.8571997      17.177239      870.10995    
     85000   107.05382      29.347767      11.487856      40.835623      4.7963768      4.8393615      0              1.6827128      18.029316      1355.6682    
     85100   112.8366       29.23333       12.108401      41.341731      5.2450707      5.4497458      0              2.3569376      16.181576     -1769.669     
     85200   114.22619      29.872628      12.257516      42.130145      4.8934559      6.6254137      0              2.169267       16.184492      845.27008    
     85300   145.5371       27.522764      15.617464      43.140229      5.260679       3.4260462      0              2.0276784      16.808361      319.86028    
     85400   112.08443      32.164108      12.027686      44.191794      5.1293126      7.0610486      0              2.5779934      17.395753      212.29108    
     85500   130.48009      31.08025       14.001709      45.081959      6.4767128      4.86537        0              2.6730691      17.065098      3410.3296    
     85600   142.87833      30.324123      15.332153      45.656277      6.0119857      6.4602208      0              1.7960712      16.055846     -822.95277    
     85700   127.84295      32.247684      13.718719      45.966403      6.1774631      6.0970078      0              3.6218998      16.351313     -722.63903    
     85800   132.04175      31.82688       14.16929       45.99617       6.0630441      5.4637519      0              2.5251832      17.774901      1450.263     
     85900   151.04217      29.643424      16.208208      45.851632      7.4985821      2.6802239      0              2.7164501      16.748168     -712.9168     
     86000   119.40804      32.802083      12.813577      45.61566       7.062998       7.8621101      0              1.9210142      15.95596       58.025881    
     86100   135.4254       30.82103       14.532386      45.353416      6.6024054      4.1226311      0              3.7592969      16.336697     -381.92866    
     86200   144.2178       29.470987      15.475892      44.946879      5.039708       6.1992122      0              1.2730667      16.959        -458.26779    
     86300   134.35438      30.080792      14.417456      44.498248      4.1816558      7.5847473      0              2.2616663      16.052722      229.7343     
     86400   132.66981      29.732333      14.236686      43.969019      5.2852588      6.4686407      0              1.8887581      16.089676      1061.068     
     86500   139.92888      28.448551      15.015651      43.464201      6.1744724      4.5515703      0              1.3983532      16.324155     -105.36381    
     86600   135.56412      28.461383      14.547272      43.008655      4.7330055      4.179693       0              2.2025823      17.346102      785.63929    
     86700   125.48782      29.155653      13.465993      42.621646      5.6895049      4.6236502      0              2.4735728      16.368925     -1149.7842    
     86800   107.55189      30.732767      11.541303      42.27407       7.0798711      5.7072829      0              1.5106751      16.434938     -1158.2601    
     86900   119.0952       29.305814      12.780007      42.085821      6.5022168      4.429054       0              1.8712647      16.503279     -1867.5543    
     87000   103.10746      31.003166      11.064375      42.067541      5.1885724      4.1690684      0              3.4150027      18.230522     -354.7284     
     87100   131.27823      28.323408      14.087356      42.410764      3.685116       4.3459766      0              2.3373297      17.954986      1571.9266    
     87200   129.87826      29.380012      13.937127      43.317139      5.2012155      5.6057027      0              2.2504079      16.322686     -1037.7432    
     87300   135.51192      30.168191      14.541671      44.709862      4.1094287      6.2542138      0              2.9115005      16.893048      491.41426    
     87400   157.16358      29.496755      16.865093      46.361847      4.6000589      4.895983       0              2.186705       17.814008      2035.3848    
     87500   149.4511       31.791566      16.037472      47.829038      6.9968056      5.9214161      0              2.260219       16.613125     -2131.4563    
     87600   153.25436      32.272926      16.445597      48.718523      6.466463       7.2254047      0              2.5748696      16.006189      978.92815    
     87700   188.61937      28.787112      20.240586      49.027698      5.1861976      5.3317455      0              2.5803847      15.688784     -885.89026    
     87800   160.70467      31.568537      17.245084      48.813621      3.4257098      7.5929628      0              2.7701063      17.779758     -274.89764    
     87900   160.99696      31.168608      17.276449      48.445057      3.1967784      5.1535824      0              4.7082721      18.109975      3858.8629    
     88000   148.11619      31.871506      15.894224      47.76573       5.6006216      6.8305664      0              3.0589825      16.381336     -33.877668    
     88100   155.69055      30.270738      16.707022      46.97776       5.2162107      6.5997302      0              2.5538797      15.900917     -439.91958    
     88200   169.00405      27.894452      18.135683      46.030135      5.0081764      4.5873778      0              1.9849322      16.313966     -708.78287    
     88300   137.88342      30.349265      14.796154      45.145419      6.702442       4.6221482      0              2.2401307      16.784544      1179.0213    
     88400   143.37975      28.990616      15.385961      44.376577      4.3218261      6.6592367      0              1.8823891      16.127164     -648.49695    
     88500   170.09323      25.602667      18.252562      43.855229      3.6529719      4.6329535      0              2.0367275      15.280014     -382.76695    
     88600   113.46621      31.308278      12.175964      43.484242      3.8809695      6.7077815      0              3.8648938      16.854633      571.70225    
     88700   107.98041      31.794305      11.587288      43.381593      4.3564315      7.6451632      0              2.6078766      17.184834     -532.25793    
     88800   139.15089      28.504708      14.932166      43.436873      5.512908       5.2578337      0              2.0698358      15.66413      -300.41124    
     88900   113.05871      31.410983      12.132235      43.543219      4.6167813      8.4375346      0              3.4841502      14.872517     -2232.0456    
     89000   133.97697      29.392059      14.376957      43.769016      6.7333981      4.3134216      0              2.4629562      15.882283     -1929.7983    
     89100   126.38912      30.423683      13.562711      43.986393      7.2935526      4.950066       0              1.5534652      16.626599     -1408.9437    
     89200   151.95434      27.864752      16.306093      44.170845      6.0775857      4.2378762      0              2.3823734      15.166917     -1190.8726    
     89300   147.96434      28.446218      15.877929      44.324147      4.5235559      5.6838084      0              2.5749644      15.663889      220.56959    
     89400   124.92606      31.082631      13.405711      44.488341      6.2605534      5.7576414      0              2.429869       16.634567      37.148412    
     89500   132.68007      30.488483      14.237788      44.726271      6.8268229      4.3832814      0              3.0390229      16.239356     -235.10486    
     89600   134.27088      30.532329      14.408495      44.940824      6.2671095      6.6943085      0              2.4011788      15.169732     -2172.203     
     89700   128.41411      31.362487      13.780011      45.142498      6.5192795      7.7884423      0              1.8674567      15.187309      456.17937    
     89800   153.83677      29.026431      16.508095      45.534526      5.6793416      4.9141022      0              2.5231507      15.909836      284.45197    
     89900   128.00181      32.350371      13.735767      46.086138      6.954053       5.7794893      0              3.2393798      16.377448      307.00774    
     90000   155.31114      30.342418      16.666308      47.008726      6.1736761      6.7028029      0              2.80838        14.657559     -482.12284    
     90100   155.89557      31.337244      16.729023      48.066267      6.9040652      6.721169       0              2.7542896      14.957721      837.55081    
     90200   144.32694      33.629041      15.487602      49.116643      7.4815851      6.7852664      0              3.3225682      16.039621      1241.4572    
     90300   190.43429      29.418375      20.435344      49.853719      4.0875841      5.9155408      0              3.3339106      16.081339      1809.9312    
     90400   173.92222      31.563994      18.663448      50.227442      6.7364317      7.5347776      0              2.3270968      14.965688      413.02326    
     90500   158.92841      33.224076      17.054474      50.27855       7.8489391      6.0523079      0              3.544876       15.777953     -1112.0638    
     90600   150.00556      33.877177      16.096971      49.974148      6.8361812      6.2403773      0              4.1104209      16.690197      746.3264     
     90700   149.02039      33.376042      15.991253      49.367295      6.8919777      6.7597255      0              3.4422713      16.282067      1311.3074    
     90800   178.27842      29.378349      19.130908      48.509257      4.7431948      6.9696247      0              2.2730123      15.392517     -915.74826    
     90900   173.35779      28.775411      18.602879      47.37829       5.3789787      5.6366964      0              2.1646429      15.595093     -425.21965    
     91000   135.14996      31.707513      14.502829      46.210342      5.9928606      5.4360669      0              3.4534759      16.825109      1561.4952    
     91100   138.08541      30.226802      14.81783       45.044632      6.2829373      4.001764       0              4.4997003      15.442401      871.31585    
     91200   133.39635      29.673042      14.314651      43.987693      4.9401219      5.956834       0              2.9854853      15.790601      1054         
     91300   111.66444      31.261535      11.982618      43.244153      5.5476638      4.9202764      0              4.8778219      15.915773     -180.22479    
     91400   128.02872      29.04443       13.738655      42.783085      4.5286091      5.2944165      0              3.2455929      15.975811     -767.60408    
     91500   108.56951      30.802263      11.650503      42.452766      6.0515145      5.524356       0              3.0519826      16.17441       274.44469    
     91600   130.13261      28.393436      13.964421      42.357857      6.8439619      4.7328402      0              1.1710734      15.64556      -793.19519    
     91700   130.60094      28.375678      14.014677      42.390355      6.5838529      3.8927975      0              2.5264953      15.372532     -2272.6763    
     91800   126.36921      28.932442      13.560574      42.493016      4.9877906      5.4377653      0              2.0564238      16.450462      1350.6296    
     91900   133.62557      28.408244      14.339247      42.747491      6.5040895      4.7712153      0              1.6954122      15.437526     -1294.6084    
     92000   145.43433      27.488876      15.606436      43.095313      5.3275932      4.8738673      0              1.6240316      15.663384      1673.4598    
     92100   153.85735      27.113222      16.510304      43.623526      4.8315757      3.9220351      0              2.5614899      15.798122     -1284.4855    
     92200   152.55636      28.017078      16.370695      44.387773      5.585204       4.4141549      0              2.3653256      15.652393     -1170.5676    
     92300   135.65068      30.971599      14.556561      45.528159      5.8406093      7.2389724      0              2.4322095      15.459807      425.8117     
     92400   157.37557      30.366246      16.887841      47.254087      6.4952853      5.2768635      0              2.0935715      16.500526      99.403538    
     92500   170.29952      31.037578      18.274699      49.312277      5.5482167      5.5744375      0              2.7373672      17.177557      1647.2464    
     92600   155.88526      34.07711       16.727917      50.805027      6.6621874      8.5907924      0              1.8270703      16.99706       1026.357     
     92700   165.69308      33.749168      17.780385      51.529553      5.9110948      9.1554103      0              2.5510881      16.131575     -433.89697    
     92800   173.13718      33.128611      18.579206      51.707817      6.0350082      6.2462432      0              4.8376102      16.009749      127.95032    
     92900   202.41632      29.709771      21.721126      51.430897      5.5962376      4.0761272      0              2.7905891      17.246817      1584.2157    
     93000   176.46254      31.900274      18.936047      50.836321      5.4175647      7.0165397      0              3.0622264      16.403943      63.8632      
     93100   166.64003      32.080071      17.882002      49.962073      5.5516946      7.6704019      0              3.0861129      15.771862      620.30635    
     93200   172.66337      30.387965      18.528361      48.916326      5.9431893      5.9336703      0              2.4044793      16.106626      363.00537    
     93300   171.88762      29.28875       18.445116      47.733866      3.6609785      4.1706233      0              4.0278634      17.429285     -276.64487    
     93400   137.9507       31.876801      14.803374      46.680175      4.6756689      5.6286732      0              3.6854266      17.887032      2412.2151    
     93500   160.78306      28.585523      17.253496      45.839019      5.1542041      4.6964933      0              1.9574643      16.777361     -1195.4982    
     93600   140.5451       30.038485      15.081777      45.120262      4.5936014      6.2191694      0              2.3600188      16.865695      1284.4426    
     93700   147.63538      28.707683      15.842628      44.550312      4.9492492      4.3196363      0              2.4019546      17.036843     -311.58756    
     93800   147.49084      28.303432      15.827119      44.130551      5.3736147      5.5044284      0              0.9559176      16.469472     -739.58682    
     93900   120.74304      30.907313      12.956835      43.864148      4.7425352      6.6357484      0              3.3785889      16.150441     -269.0852     
     94000   142.47368      28.478882      15.288732      43.767613      7.3561519      3.2872306      0              1.6045538      16.230945     -3018.3931    
     94100   127.91938      30.015519      13.726921      43.742441      6.3643096      5.4234052      0              1.6511089      16.576695     -1554.7154    
     94200   109.35106      32.111528      11.73437       43.845898      6.1296038      7.509155       0              1.9002689      16.5725       -1191.3778    
     94300   129.47576      30.359277      13.893935      44.253212      6.984304       4.0448417      0              2.2388842      17.091247     -1096.6192    
     94400   139.33082      30.073701      14.951473      45.025174      7.1392367      4.8316169      0              1.3296576      16.77319      -2537.02      
     94500   142.02152      30.978961      15.24021       46.219171      7.2151148      5.740921       0              1.7226028      16.300322     -2025.8353    
     94600   138.71715      32.888347      14.885621      47.773968      8.4045102      5.1384967      0              2.0675352      17.277805     -1578.1392    
     94700   131.89061      35.405687      14.153071      49.558758      7.8592017      6.9193285      0              1.7379807      18.889176     -1414.2934    
     94800   178.59244      32.087507      19.164605      51.252113      5.3099597      7.1133576      0              1.8033651      17.860825      314.93507    
     94900   188.80364      31.869263      20.26036       52.129623      4.3288529      6.3821267      0              3.7651658      17.393117      2491.5128    
     95000   181.09077      32.831778      19.432699      52.264477      5.1376397      6.1635927      0              3.8084391      17.722106     -440.55771    
     95100   171.69804      33.617091      18.424773      52.041864      6.8859635      5.7806238      0              3.1076049      17.842899      1296.3088    
     95200   153.30864      35.115252      16.451421      51.566673      9.9974092      5.6497479      0              2.3367449      17.131349      203.93804    
     95300   156.87827      33.925627      16.834476      50.760103      9.5945507      7.4462514      0              1.927092       14.957733     -3256.3483    
     95400   171.86784      31.304956      18.442994      49.74795       6.2881751      6.601732       0              2.223087       16.191962      90.065395    
     95500   131.48232      34.763028      14.109257      48.872285      6.7325701      8.2427899      0              2.2089801      17.578687      1842.4245    
     95600   158.30054      31.232566      16.987098      48.219664      6.5882514      6.2591828      0              1.8242457      16.560886      2126.4115    
     95700   146.90961      31.779239      15.764747      47.543986      6.6786917      6.9113121      0              2.1119183      16.077317      398.66185    
     95800   158.33785      29.953272      16.991102      46.944375      7.292939       4.7008364      0              1.6647331      16.294764     -3126.011     
     95900   131.09151      32.426633      14.06732       46.493953      7.0232471      6.2172025      0              1.9791145      17.207069     -1481.6097    
     96000   128.32657      32.449366      13.770617      46.219982      7.6392393      5.7954939      0              2.8778354      16.136797     -1770.2905    
     96100   141.40719      30.871182      15.174287      46.04547       7.7471444      5.229903       0              1.5681187      16.326016     -461.23413    
     96200   142.34602      30.620807      15.275032      45.895839      5.2593825      7.1389733      0              1.5347416      16.687709      72.30869     
     96300   142.95924      30.534244      15.340836      45.87508       4.0128995      7.5074468      0              1.3383166      17.675581      1602.7452    
     96400   167.57753      28.064493      17.982604      46.047097      4.1195212      5.3062652      0              1.8452249      16.793481     -1288.5615    
     96500   160.11939      29.155992      17.182277      46.338269      5.3481441      6.2749672      0              1.4813089      16.051572      595.19713    
     96600   133.97664      32.343041      14.376921      46.719961      6.7812963      4.9326709      0              4.2568819      16.372192     -386.58589    
     96700   138.04887      32.539937      14.813908      47.353846      5.4386762      7.657634       0              2.6372108      16.806416      1018.8303    
     96800   138.19595      33.358175      14.829692      48.187866      7.6412393      5.9077807      0              2.2763542      17.532801      1889.5825    
     96900   157.75698      32.442979      16.928769      49.371748      4.2125431      7.3968975      0              3.8847351      16.948803      1124.4785    
     97000   185.82469      30.72847       19.940692      50.669162      5.6245252      6.6925307      0              1.532419       16.878995      535.33395    
     97100   187.06671      31.603504      20.073972      51.677476      4.1198726      7.9783889      0              2.6283388      16.876904     -340.60312    
     97200   173.04615      33.954077      18.569438      52.523515      7.8899391      6.5362015      0              2.6684215      16.859515     -561.5299     
     97300   188.34339      32.652657      20.210971      52.863628      6.7939822      7.3236959      0              1.9921588      16.542821     -287.93062    
     97400   180.66857      33.228579      19.387393      52.615972      5.7406142      6.9755256      0              3.342833       17.169607      529.56325    
     97500   168.16231      33.766584      18.045357      51.81194       5.6613656      8.815491       0              2.3807561      16.908971      1583.2611    
     97600   166.24861      32.879695      17.839999      50.719694      5.6164369      7.8623829      0              1.9512974      17.449578      2469.4962    
     97700   182.56399      29.938783      19.590789      49.529571      5.3230719      6.18836        0              1.6790315      16.748319      895.59098    
     97800   174.93807      29.421575      18.772457      48.194032      4.309693       7.2454491      0              1.3570922      16.50934      -1278.1303    
     97900   139.48817      32.21486       14.968359      47.183219      4.2388821      7.1280069      0              3.4822148      17.365756     -70.206997    
     98000   142.56931      31.264961      15.298994      46.563954      6.0113034      7.2395468      0              1.9889403      16.02517      -1679.9765    
     98100   140.19233      31.04965       15.043922      46.093572      5.7789835      6.2204993      0              2.4555388      16.594628     -734.97949    
     98200   139.41633      30.81329       14.96065       45.773939      6.7219793      6.3896496      0              1.1292118      16.572449     -210.40377    
     98300   121.32188      32.57132       13.01895       45.59027       4.9886027      6.1266557      0              3.8653455      17.590716      2712.8155    
     98400   145.07719      30.051071      15.568112      45.619183      5.3009299      5.3324212      0              2.0216171      17.396102      854.38482    
     98500   147.60944      30.014576      15.839846      45.854422      3.6796615      6.5197659      0              3.6370489      16.1781       -1563.4039    
     98600   158.70015      29.139777      17.029981      46.169757      4.4697844      5.6929859      0              2.2300325      16.746974      282.24474    
     98700   144.90832      30.930056      15.54999       46.480046      5.7972789      6.424819       0              1.9744841      16.733474     -1479.8048    
     98800   160.31967      29.672802      17.203769      46.876571      5.532867       4.7001684      0              2.9414332      16.498333     -126.56413    
     98900   165.97713      29.436021      17.810867      47.246888      6.6013104      5.4970884      0              1.3398164      15.997806      567.5012     
     99000   139.37246      32.538848      14.955942      47.49479       9.3814957      4.8602644      0              2.6790886      15.618        -1051.9498    
     99100   162.24148      30.096804      17.409997      47.506801      7.0488041      5.7332582      0              1.8650962      15.449645     -346.90921    
     99200   134.15209      33.001481      14.395748      47.397229      5.4600525      10.199548      0              1.937707       15.404174     -347.43247    
     99300   172.90081      28.801628      18.553841      47.355469      5.9630138      4.9234381      0              1.2830479      16.632128      683.94947    
     99400   144.60212      31.728495      15.517132      47.245627      6.1545716      7.0699112      0              1.8391127      16.664899      192.77918    
     99500   142.90949      31.802122      15.335498      47.13762       5.6725987      7.3297848      0              1.9328355      16.866903      84.921208    
     99600   148.14708      31.257915      15.897539      47.155454      6.9930236      5.4754785      0              1.7887653      17.000647     -511.06984    
     99700   134.18314      32.819453      14.39908       47.218534      7.0963886      4.9496041      0              2.6860096      18.087451      2128.4783    
     99800   141.12061      32.23217       15.143534      47.375704      6.4437902      6.5197772      0              1.3352169      17.933385      28.231564    
     99900   142.93426      32.226404      15.338156      47.56456       6.0731011      7.5074229      0              1.2888223      17.357057     -749.44685    
    100000   162.52195      30.361949      17.440094      47.802043      4.3359146      6.3828071      0              1.6843468      17.958881      1469.8381    
    100100   133.9729       33.839733      14.376519      48.216252      4.8410759      8.2246829      0              2.3896843      18.38429       117.67572    
    100200   129.17288      34.932011      13.861433      48.793445      6.0158415      8.9215341      0              2.0940064      17.900629      307.54904    
    100300   147.82246      33.503976      15.862704      49.36668       7.8293687      6.3437154      0              2.7255826      16.60531      -286.46554    
    100400   156.99009      33.121278      16.846475      49.967753      6.4023449      7.2344835      0              2.6664094      16.81804       466.00025    
    100500   125.71546      37.103584      13.49042       50.594004      7.7050875      8.849925       0              2.7463496      17.802222      1814.1997    
    100600   181.47597      31.81151       19.474034      51.285545      5.3033956      5.9816781      0              3.3565359      17.169901      540.82218    
    100700   178.34164      33.008879      19.137692      52.146571      5.2039808      8.6277209      0              3.2977897      15.879388     -641.14719    
    100800   176.84619      33.879011      18.977216      52.856228      5.408936       9.6123382      0              2.5515518      16.306185      839.28086    
    100900   199.06639      32.235154      21.361648      53.596801      6.1716622      6.2269967      0              3.5860538      16.250441     -318.97663    
    101000   209.56858      31.601617      22.488628      54.090245      7.8909069      6.1343111      0              1.1997678      16.376631     -1091.311     
    101100   172.83567      35.658862      18.54685       54.205713      8.0634665      8.3914657      0              2.8773203      16.32661      -1150.3079    
    101200   174.76824      34.800403      18.754233      53.554636      9.9289886      6.1709936      0              4.149881       14.55054      -4492.5957    
    101300   162.17359      34.707075      17.402712      52.109787      5.6818791      10.42563       0              2.1466729      16.452893     -413.35186    
    101400   183.04279      30.554167      19.642168      50.196335      4.8145784      6.3494887      0              2.2804765      17.109623     -752.25712    
    101500   190.17081      27.780184      20.40707       48.187254      4.6264637      4.9051968      0              2.0846595      16.163864     -1609.2005    
    101600   134.66551      32.25906       14.450843      46.709903      5.8860372      6.6290287      0              3.2608744      16.48312       591.19305    
    101700   130.6724       31.742489      14.022345      45.764834      5.2310498      7.1980655      0              2.5725748      16.740799      649.49367    
    101800   150.98775      28.955582      16.202368      45.157951      5.2687795      3.7535068      0              2.3776619      17.555634      1684.4309    
    101900   168.9884       26.657172      18.134003      44.791175      4.978812       3.897724       0              1.925614       15.855022     -881.9577     
    102000   159.09729      27.453723      17.072596      44.52632       4.7957324      5.2786243      0              1.6662103      15.713156      938.44465    
    102100   159.99932      27.299588      17.169392      44.468981      4.1744719      5.2202322      0              1.6279173      16.276967      2049.1043    
    102200   136.5721       29.975427      14.655438      44.630865      5.0684061      5.2178026      0              3.1902113      16.499007     -1360.7273    
    102300   149.69879      28.943474      16.064052      45.007526      5.7927657      5.8185973      0              1.4727532      15.859358      2082.8626    
    102400   144.75255      30.146785      15.533274      45.68006       5.4476561      6.43985        0              2.8137752      15.445504     -61.26043     
    102500   129.66392      32.752036      13.914127      46.666163      6.3769019      7.0942665      0              3.2631092      16.017758     -2649.6031    
    102600   137.85562      33.105891      14.793171      47.899062      7.0945392      5.3228377      0              3.7899119      16.898602      349.43397    
    102700   171.66986      30.876405      18.421749      49.298153      5.7037362      6.9332068      0              2.6078394      15.631622     -1572.3005    
    102800   163.28884      32.974574      17.522389      50.496963      6.6378672      7.6223958      0              2.0212827      16.693029     -1001.8426    
    102900   179.04333      32.155415      19.21299       51.368404      5.1602922      7.5369423      0              2.1121973      17.345983      2144.4797    
    103000   171.14508      33.696769      18.365435      52.062205      7.6173646      7.252731       0              2.9664544      15.860219     -912.63996    
    103100   151.44337      36.190572      16.251261      52.441833      7.6498193      8.4514167      0              3.7799696      16.309366      23.38375     
    103200   200.83243      31.022277      21.551159      52.573436      6.4340035      5.7320388      0              3.2445608      15.611674      956.5913     
    103300   170.74055      34.063517      18.322025      52.385542      6.4837644      7.4971739      0              3.6376466      16.444933      1172.1567    
    103400   161.96199      34.695743      17.380005      52.075748      5.6946328      8.8193084      0              3.6163737      16.565428      1941.228     
    103500   151.55088      35.315226      16.262798      51.578025      7.4671165      8.3663779      0              4.0679302      15.413802     -758.90522    
    103600   169.05866      32.899914      18.141543      51.041457      6.6207603      6.5012263      0              2.7397629      17.038164      793.98371    
    103700   154.17721      33.918207      16.544627      50.462834      6.9471418      7.3921018      0              3.4802326      16.098731     -539.75457    
    103800   148.63095      33.896041      15.949462      49.845504      5.5509931      8.8657063      0              2.5750688      16.904273      364.55044    
    103900   180.56156      29.919044      19.375909      49.294953      5.6935317      5.243493       0              2.7485303      16.233489      218.41715    
    104000   155.0499       32.128597      16.638275      48.766872      6.2831252      6.9137683      0              2.1360474      16.795656      231.88003    
    104100   166.15256      30.461687      17.829692      48.291378      5.8925539      5.3254545      0              2.1925315      17.051147      1144.5351    
    104200   136.84168      33.321974      14.684366      48.00634       5.4973609      8.5562378      0              2.4821142      16.786261      1283.7978    
    104300   164.01901      30.210334      17.600742      47.811076      4.9315363      5.6397182      0              3.7620901      15.876989     -553.78994    
    104400   114.90659      35.408956      12.33053       47.739485      7.9877845      7.3184518      0              2.8897929      17.212927      1036.5376    
    104500   167.49378      29.828221      17.973618      47.801838      6.4444415      4.8780372      0              1.8689785      16.636764     -65.209177    
    104600   167.1043       29.949754      17.931822      47.881576      4.995695       5.6107703      0              1.9359633      17.407325      143.65196    
    104700   146.35717      32.333492      15.705466      48.038957      5.4693717      8.3680335      0              2.1862146      16.309872     -767.18315    
    104800   169.41634      30.06123       18.179926      48.241156      5.5105592      5.1973484      0              2.6129266      16.740396      1580.8785    
    104900   164.00607      30.754226      17.599354      48.35358       4.0831477      6.7676509      0              3.0680784      16.835349      358.6044     
    105000   158.37699      31.479003      16.995302      48.474305      4.2794179      5.9244361      0              4.5501083      16.725041      203.40046    
    105100   147.22515      32.836839      15.798607      48.635446      7.0448945      7.2950536      0              2.5583845      15.938506     -1004.0075    
    105200   157.72819      31.882753      16.92568       48.808433      5.7893296      7.2538321      0              2.4768325      16.362759     -393.96953    
    105300   137.16644      34.352514      14.719216      49.07173       7.8620308      8.1031021      0              2.1785306      16.20885      -298.39891    
    105400   178.9099       30.106431      19.198671      49.305102      6.1409562      5.5525273      0              1.8462899      16.566658      754.15867    
    105500   154.52129      32.922372      16.58155       49.503922      6.5484713      7.7401107      0              2.7218313      15.911959      61.514103    
    105600   186.04767      29.829646      19.96462       49.794266      6.6106228      7.1887249      0              1.1805452      14.849753     -1553.2604    
    105700   141.97938      34.794226      15.235688      50.029914      7.1152804      8.7399619      0              3.4770626      15.461921     -2147.8164    
    105800   164.93686      32.543612      17.699237      50.242849      5.9294852      8.4260077      0              2.0795134      16.108606      1063.3834    
    105900   159.54646      33.353955      17.120797      50.474752      6.5677615      7.5728169      0              2.9629864      16.25039       473.2331     
    106000   157.68884      33.708242      16.921457      50.629699      7.9090485      7.3766537      0              2.7143861      15.708154      409.94905    
    106100   165.73959      32.999043      17.785376      50.784419      5.7838046      7.9598186      0              3.2865882      15.968831      618.59854    
    106200   170.43114      32.503948      18.288823      50.792771      5.0415338      8.5289351      0              2.8718803      16.061599     -244.7268     
    106300   181.92796      30.9622        19.522537      50.484737      5.8694567      6.6394906      0              2.4935155      15.959737      949.61748    
    106400   183.6102       29.953924      19.703056      49.656981      4.8459862      6.7197573      0              2.3729173      16.015263      516.88062    
    106500   154.89451      31.627042      16.6216        48.248641      6.0927347      7.2851662      0              2.2253282      16.023813     -278.97425    
    106600   164.51592      29.039571      17.654065      46.693636      4.7991058      6.1148378      0              1.6197793      16.505848      168.52328    
    106700   129.2854       31.46944       13.873508      45.342948      5.0982798      7.5505849      0              2.2030981      16.617477      1232.7916    
    106800   134.06619      30.125276      14.38653       44.511806      4.771411       4.5632133      0              3.8889542      16.901697     -258.93506    
    106900   129.20826      30.291429      13.865231      44.156659      5.6843544      5.4581178      0              1.701099       17.447858      2363.1666    
    107000   129.20284      30.295634      13.864649      44.160283      3.6450973      7.535115       0              2.8782646      16.237157      1694.2831    
    107100   133.39004      30.233641      14.313973      44.547614      5.4929309      4.7930581      0              3.4338059      16.513846     -521.72608    
    107200   128.59896      31.495106      13.799847      45.294953      5.210669       5.9373355      0              3.8265807      16.520521      503.47117    
    107300   128.20961      32.614018      13.758066      46.372085      4.7139784      8.0129407      0              3.5057265      16.381373     -1863.5367    
    107400   165.9726       29.90099       17.81038       47.711371      6.8267405      5.0399301      0              2.5076384      15.526681     -1106.6209    
    107500   152.72108      32.651694      16.388371      49.040065      6.4896172      7.6217712      0              2.0612629      16.479043     -985.29938    
    107600   166.77118      32.240048      17.896075      50.136123      7.4981361      5.2706732      0              2.9266952      16.544543     -1148.111     
    107700   157.41257      34.152753      16.891811      51.044564      6.1809759      6.610413       0              3.8323362      17.529028      829.16905    
    107800   192.01181      31.129691      20.604626      51.734317      7.1139148      4.6705493      0              3.2271051      16.118122     -1.2993966    
    107900   170.14918      33.863606      18.258566      52.122172      7.158306       6.3692344      0              3.6925172      16.643548      331.07184    
    108000   181.89636      32.798199      19.519146      52.317345      7.9612649      4.8546921      0              2.735689       17.246553     -923.34106    
    108100   164.95083      34.687307      17.700735      52.388043      8.709319       5.9227096      0              2.7858119      17.269467      984.18141    
    108200   160.10574      35.153011      17.180812      52.333824      8.0010848      9.1446648      0              2.1060469      15.901215     -2097.4203    
    108300   158.09399      35.275187      16.964934      52.240121      6.4684855      6.9617918      0              4.4565818      17.388328     -560.07363    
    108400   200.35696      30.503242      21.500137      52.003379      5.7885632      5.4242211      0              2.1154412      17.175016      309.60929    
    108500   163.28327      34.102073      17.521791      51.623864      4.9659165      7.3653886      0              4.1735811      17.597187      1456.0066    
    108600   174.56346      32.409462      18.732259      51.141721      7.2995693      6.0836171      0              2.2241575      16.802118     -1757.7139    
    108700   159.26696      33.279881      17.090804      50.370685      6.7075229      5.9327411      0              3.9975805      16.642036     -834.6805     
    108800   145.29102      33.572304      15.591058      49.163361      5.6336767      6.7432769      0              4.103175       17.092175      893.93196    
    108900   134.00597      33.267637      14.380068      47.647705      6.3085167      5.1251616      0              4.0726575      17.761302      390.8116     
    109000   135.62546      31.618505      14.553855      46.172359      5.8967835      5.8767635      0              2.2074944      17.637463      179.04146    
    109100   132.85757      30.884832      14.256834      45.141667      5.1650936      6.6891383      0              1.9148361      17.115764     -432.98128    
    109200   130.66719      30.539646      14.021787      44.561433      3.5494401      6.8029875      0              2.9908669      17.196351      1096.0077    
    109300   132.63761      30.15623       14.233231      44.389462      4.9424492      6.0440686      0              2.0121993      17.157513      849.38653    
    109400   149.52181      28.563808      16.04506       44.608868      3.7511602      6.165529       0              1.679409       16.96771       1866.5814    
    109500   145.08976      29.662152      15.569461      45.231613      4.4072528      7.2130534      0              2.6002039      15.441642     -590.23211    
    109600   134.05115      31.8901        14.384916      46.275016      6.4742537      8.2782231      0              1.2446325      15.89299      -896.55589    
    109700   165.80026      29.839598      17.791886      47.631485      4.6275091      7.7262547      0              1.9178534      15.567981      833.36909    
    109800   176.43181      30.082356      18.932749      49.015105      5.2063111      7.305273       0              2.115808       15.454964     -614.89697    
    109900   178.85252      30.922094      19.192514      50.114608      5.9278387      6.3763443      0              2.4112545      16.206656     -473.81985    
    110000   147.94934      34.947867      15.876319      50.824186      8.6129677      6.8671051      0              2.7376912      16.730103     -545.77263    
    110100   191.94724      30.579974      20.597697      51.177671      7.2630084      5.0953625      0              1.6924399      16.529163     -1862.6323    
    110200   181.11982      31.888337      19.435816      51.324154      6.8617259      4.954723       0              3.5981595      16.473729     -1600.4247    
    110300   145.6979       35.752419      15.63472       51.387139      10.538105      6.6757074      0              2.6702485      15.868359     -1686.7607    
    110400   172.0425       32.919797      18.461737      51.381534      7.2103169      4.423096       0              3.960658       17.325726      883.43427    
    110500   197.80944      30.071252      21.226765      51.298017      5.3476956      5.8298599      0              2.6949133      16.198783      496.878      
    110600   171.04264      32.717174      18.354443      51.071617      5.9392337      6.3707292      0              4.2329904      16.174221      729.44613    
    110700   161.72601      33.389892      17.354683      50.744575      6.7090576      6.975588       0              3.0961483      16.609098      1497.1428    
    110800   168.88593      32.338154      18.123008      50.461162      6.9312972      6.3351716      0              2.0808524      16.990833     -854.70664    
    110900   179.99075      30.852936      19.314657      50.167592      5.4055216      5.4020953      0              3.2607812      16.784538      1792.3755    
    111000   150.56122      33.708718      16.156598      49.865316      8.0347512      6.2351148      0              2.3319282      17.106924     -157.77958    
    111100   181.68908      30.004816      19.496903      49.501719      7.6200194      4.6396327      0              1.6686083      16.076556     -1337.1135    
    111200   183.58883      29.415234      19.700763      49.115998      4.4200962      5.1475076      0              2.4651102      17.382521      521.01283    
    111300   163.18061      31.227746      17.510775      48.738521      7.4140027      5.6803932      0              1.7653749      16.367975     -2107.9026    
    111400   149.99532      32.197955      16.095873      48.293827      7.9085173      6.589584       0              1.7755616      15.924292      319.62708    
    111500   154.80211      31.189881      16.611685      47.801565      6.2800877      7.1791021      0              2.4999591      15.230732     -1554.4178    
    111600   161.99953      29.905269      17.384034      47.289303      6.8614964      4.1665575      0              2.0633879      16.813827     -524.02287    
    111700   161.42861      29.574338      17.322768      46.897107      6.3237659      4.7920497      0              1.7884421      16.670081     -1467.1701    
    111800   118.47635      34.032547      12.713598      46.746145      6.9870701      7.7447955      0              2.6228106      16.677871     -153.33725    
    111900   147.00653      31.129539      15.775148      46.904687      5.2834407      7.0235838      0              2.3910531      16.431462     -1528.4415    
    112000   167.02357      29.604385      17.923159      47.527544      6.4167532      4.7107681      0              1.6935813      16.783283      686.60436    
    112100   152.63354      32.223388      16.378977      48.602366      6.1606403      6.4049491      0              2.3879591      17.26984       616.18055    
    112200   156.40737      33.204356      16.783943      49.9883        6.1661014      8.9670423      0              2.2163818      15.854831      98.502603    
    112300   157.74214      34.599618      16.927177      51.526795      6.2702898      7.7915725      0              2.9600722      17.577683      2810.2686    
    112400   183.65215      33.225195      19.707558      52.932753      5.9412375      7.5280327      0              2.0485799      17.707345      2356.981     
    112500   161.58941      36.705416      17.340024      54.04544       9.3502837      8.467849       0              2.033387       16.853896      1036.0647    
    112600   163.94505      37.195342      17.592806      54.788148      8.5369452      7.7406901      0              3.122005       17.795702      2336.7862    
    112700   195.58726      34.243331      20.988304      55.231636      7.897453       7.1632785      0              2.0801671      17.102433      717.59571    
    112800   185.47946      35.583951      19.903645      55.487596      8.4324023      6.4145277      0              2.9567965      17.780224      2990.2191    
    112900   193.62201      34.770906      20.777415      55.548321      6.5511786      7.8766537      0              2.2221827      18.120891      1929.9038    
    113000   202.98527      33.558398      21.782179      55.340577      7.9663478      7.3123171      0              2.1003368      16.179396      648.71907    
    113100   223.14981      30.784865      23.946019      54.730884      7.6334259      5.4120197      0              2.3283603      15.411059      340.69342    
    113200   196.59689      32.643535      21.096647      53.740182      6.8447665      7.6971586      0              2.2035987      15.898011     -925.2253     
    113300   176.83703      33.58216       18.976234      52.558394      8.9215282      7.1172462      0              1.5582714      15.985114     -1487.2209    
    113400   167.2766       33.260014      17.950312      51.210325      6.0791902      8.2457438      0              2.855996       16.079084      360.7869     
    113500   152.0299       33.425324      16.314201      49.739525      9.2261337      6.2687564      0              2.1100621      15.820371     -432.65772    
    113600   129.66919      34.495224      13.914692      48.409915      8.5528956      6.5755199      0              2.1710228      17.195785      1759.8086    
    113700   169.77227      29.2659        18.21812       47.48402       6.5453466      3.5775121      0              1.8367554      17.306286     -564.12953    
    113800   156.41313      30.204812      16.784561      46.989374      6.8797125      4.9762735      0              2.0551083      16.293718      1084.004     
    113900   168.25621      28.747241      18.055433      46.802673      5.0481747      5.7470119      0              1.4081777      16.543876      2546.2181    
    114000   154.33698      30.348633      16.561772      46.910405      5.0651445      6.8245771      0              3.0248145      15.434097     -658.44585    
    114100   163.24952      29.666802      17.518169      47.184971      6.3491312      5.8182814      0              1.898162       15.601228      568.94318    
    114200   149.89961      31.424457      16.085601      47.510058      5.8332143      8.1608697      0              1.4167793      16.013593      931.29407    
    114300   144.07307      32.468125      15.46036       47.928485      7.7127543      6.0795492      0              2.4836679      16.192153     -1272.8564    
    114400   151.87978      32.122845      16.298092      48.420937      5.1302636      6.7457971      0              2.6094471      17.637338      1917.0575    
    114500   150.37589      32.921165      16.136711      49.057876      8.2949198      7.1492157      0              1.5105281      15.966501      6.3740381    
    114600   161.19705      32.515647      17.29792       49.813567      6.6783428      7.9431822      0              1.763981       16.130141     -2485.1904    
    114700   176.06331      31.813465      18.893207      50.706671      6.3986311      7.1799437      0              1.5586725      16.676217     -1451.1794    
    114800   158.21338      34.713705      16.977745      51.691451      6.5167451      8.4518414      0              3.0201372      16.724981      1192.2992    
    114900   162.48868      35.235067      17.436524      52.671591      9.3329884      7.628646       0              2.3144389      15.958994     -428.20888    
    115000   176.28328      34.636024      18.916811      53.552835      7.8378001      8.3262211      0              3.8226729      14.64933      -1348.2953    
    115100   171.40845      35.777418      18.393697      54.171115      8.3854942      8.8392405      0              2.084972       16.467711      2004.782     
    115200   194.07632      33.684467      20.826167      54.510634      7.706698       7.190773       0              3.3292415      15.457755      140.55297    
    115300   194.05333      33.79503       20.823701      54.618731      7.1712547      7.6626364      0              2.711093       16.250046      1314.6845    
    115400   196.75625      33.425612      21.113749      54.53936       4.9579545      8.4557261      0              3.5750676      16.436863      2042.8004    
    115500   195.37302      33.332072      20.965315      54.297387      6.0263364      7.515513       0              3.496001       16.294222      1767.202     
    115600   175.52408      34.971276      18.835342      53.806618      9.560152       6.3370003      0              2.812325       16.261798      565.48909    
    115700   187.25144      32.853586      20.093795      52.947381      7.3731605      7.1869322      0              1.9831378      16.310355     -614.30619    
    115800   175.396        32.806047      18.821598      51.627644      6.2517488      5.2271452      0              5.4924144      15.834738      305.77699    
    115900   198.78532      28.482787      21.331486      49.814273      4.049423       6.8997227      0              1.305643       16.227998     -656.6298     
    116000   146.19735      32.321942      15.688315      48.010257      6.7903594      6.4325407      0              2.422766       16.676276      1919.1207    
    116100   136.01784      32.063052      14.595961      46.659012      6.5573725      6.9552829      0              2.1465362      16.40386      -472.78138    
    116200   153.00973      29.452132      16.419346      45.871478      5.6646248      6.1911508      0              1.8503613      15.745995     -1697.3169    
    116300   140.96051      30.525596      15.126354      45.65195       6.2899404      5.3668753      0              1.8168716      17.051908      2072.0321    
    116400   116.42081      33.327044      12.49302       45.820064      7.2166         6.5461096      0              2.983142       16.581193      129.23236    
    116500   152.16493      29.920092      16.328691      46.248782      6.6291225      4.9003674      0              2.0814768      16.309125     -101.82855    
    116600   147.56301      31.068015      15.834863      46.902878      6.9341423      6.2338789      0              1.7315101      16.168484     -180.63195    
    116700   154.7422       31.117252      16.605256      47.722508      5.3963381      6.608719       0              2.348692       16.763503      912.76562    
    116800   153.21979      32.247327      16.441887      48.689214      5.6092976      6.627624       0              2.6414394      17.368966      3249.5002    
    116900   165.21607      31.881853      17.729198      49.611052      5.6075744      6.9643573      0              2.3037073      17.006214      2731.7767    
    117000   172.06115      31.930643      18.463737      50.394381      7.6295636      7.377902       0              2.0163273      14.90685      -1011.6276    
    117100   164.44156      33.385269      17.646086      51.031356      7.624122       7.3682658      0              2.2034036      16.189478      2537.5148    
    117200   146.77157      35.823948      15.749934      51.573882      8.7275496      7.4600649      0              3.2481389      16.388195      211.6808     
    117300   173.39618      33.549708      18.606998      52.156706      7.1996894      7.6312962      0              1.9631246      16.755598      2322.509     
    117400   166.66174      34.878524      17.884332      52.762856      10.338344      7.0992052      0              2.382394       15.058582     -2577.219     
    117500   178.59924      34.145671      19.165335      53.311006      10.639417      6.2662192      0              1.7765149      15.46352       1719.1668    
    117600   169.87478      35.574615      18.22912       53.803735      10.532952      5.7013906      0              2.9762422      16.36403      -725.04771    
    117700   199.42799      32.837935      21.400451      54.238386      6.679736       6.2542657      0              3.5368007      16.367133     -877.97431    
    117800   178.17058      35.55243       19.119336      54.671765      7.0422551      10.661709      0              2.1083072      15.740158      947.28264    
    117900   176.06858      36.093073      18.893771      54.986845      9.9560202      8.8659149      0              2.0183057      15.252832     -2569.619     
    118000   196.40251      34.111935      21.075789      55.187724      8.0976679      6.1646724      0              2.5119547      17.33764       476.11814    
    118100   191.72211      34.690097      20.573538      55.263635      6.1624627      7.5503625      0              3.1294696      17.847802      3348.1321    
    118200   192.14393      34.575226      20.618805      55.19403       8.0645878      7.7026147      0              2.9057845      15.902239     -1089.0818    
    118300   202.27121      33.199429      21.705554      54.904983      8.2815308      6.9976212      0              2.0227417      15.897535     -669.7852     
    118400   192.41215      33.570879      20.647586      54.218466      8.6684452      4.7874559      0              3.9775834      16.137395     -591.66459    
    118500   209.06649      30.644279      22.43475       53.079029      6.8608121      3.1327244      0              4.9581961      15.692546     -2433.3072    
    118600   154.43563      35.037615      16.572358      51.609974      11.104814      3.7219005      0              4.3815208      15.82938      -1246.8274    
    118700   162.19725      32.787077      17.405251      50.192328      7.3599198      7.394737       0              1.3857147      16.646705      810.08805    
    118800   171.7988       30.637707      18.435585      49.073292      3.9700599      5.780403       0              3.9787874      16.908457     -438.91876    
    118900   186.97443      28.296248      20.064069      48.360317      5.3788801      3.7850873      0              2.6792784      16.453002      667.44406    
    119000   150.25074      31.853228      16.123281      47.976508      5.5507911      5.9989253      0              3.6571751      16.646336      10.963738    
    119100   165.47423      30.170365      17.756901      47.927266      5.7690279      6.2235761      0              2.4333561      15.744405     -1153.9084    
    119200   158.03913      31.307311      16.959047      48.266358      5.4910764      6.7636246      0              1.8962702      17.15634       1782.3757    
    119300   167.35916      31.059142      17.959171      49.018313      5.5284704      6.3619511      0              1.4382938      17.730426     -256.6733     
    119400   160.83675      32.994633      17.259257      50.25389       6.9963787      5.3149024      0              3.4984934      17.184858     -192.7864     
    119500   182.30477      32.290311      19.562972      51.853283      5.7827016      6.6030781      0              3.1587548      16.745776      1210.515     
    119600   183.03138      33.938688      19.640944      53.579632      7.6013768      5.328808       0              3.6630222      17.345481      2428.277     
    119700   172.654        36.397425      18.527356      54.924781      8.0369661      8.88307        0              2.4785757      16.998814      736.08918    
    119800   194.16934      34.975838      20.836149      55.811988      7.255056       8.2648025      0              2.4723759      16.983604      1243.2535    
    119900   174.77214      37.601772      18.754652      56.356424      7.9542902      9.0503898      0              4.4509159      16.146176     -1049.0328    
    120000   207.55357      34.357278      22.2724        56.629677      7.8608383      7.121116       0              2.6956318      16.679691     -854.19517    
    120100   154.45983      40.112544      16.574955      56.687499      12.74942       6.6068616      0              2.4743907      18.281871      1955.9555    
    120200   183.02922      36.899416      19.640712      56.540128      8.0913866      9.6034063      0              2.4775594      16.727064      895.99508    
    120300   187.13718      36.270438      20.081534      56.351972      9.8413805      6.5221911      0              4.2360997      15.670766     -3091.7892    
    120400   210.741        33.717514      22.61444       56.331953      7.7880971      7.1765096      0              2.8390708      15.913836     -1992.3615    
    120500   192.43626      35.679666      20.650174      56.32984       6.8987751      7.7734627      0              3.701968       17.30546       1795.8541    
    120600   204.79741      34.33304       21.976638      56.309678      6.064781       7.0843226      0              4.0979839      17.085952      86.828765    
    120700   181.67014      36.667431      19.49487       56.162301      8.829535       9.2839903      0              2.7123642      15.841541     -810.65618    
    120800   184.85507      36.113631      19.836643      55.950273      10.841211      5.1876794      0              3.2867836      16.797956      68.819813    
    120900   148.81014      39.607301      15.968691      55.575992      9.1558603      8.3570687      0              4.8680035      17.226369      339.00932    
    121000   191.4848       34.344511      20.548074      54.892584      9.8343338      4.2943114      0              4.7267593      15.489106     -2440.1955    
    121100   202.78765      31.850933      21.760972      53.611905      6.9727259      7.1541543      0              3.1577943      14.566258     -3022.7888    
    121200   188.37337      31.561847      20.214188      51.776036      5.5558022      7.5442271      0              2.8776132      15.584205     -546.98441    
    121300   147.15953      34.055316      15.791566      49.846882      5.6735477      7.6479667      0              3.4990667      17.234735     -1105.2083    
    121400   176.81444      29.390691      18.97381       48.364501      5.9615261      4.5585141      0              3.1068218      15.763829      252.48206    
    121500   163.59417      29.876745      17.555153      47.431899      6.4311664      5.8005255      0              2.574135       15.070918     -464.89309    
    121600   166.07309      29.14593       17.821164      46.967094      6.3970041      5.2222686      0              2.1075021      15.419155     -1532.7789    
    121700   141.44923      31.730606      15.178799      46.909405      7.6277442      5.2029765      0              2.4522865      16.447599      1764.354     
    121800   141.33585      32.083604      15.166632      47.250236      5.2367752      5.3974854      0              5.4850965      15.964247      224.70335    
    121900   161.1107       30.728522      17.288654      48.017176      5.1110793      6.261165       0              2.6120194      16.744258      1553.1963    
    122000   152.19547      32.949139      16.331968      49.281107      7.0070946      6.4422038      0              2.9963594      16.503482     -1741.3325    
    122100   168.93675      32.611139      18.128461      50.7396        5.7740292      8.7924471      0              1.6470996      16.397563      943.03671    
    122200   167.53313      34.053673      17.97784       52.031512      7.075369       7.7085877      0              2.6134125      16.656304      2568.6229    
    122300   202.90893      31.262474      21.773987      53.03646       6.2965716      6.3313582      0              2.5579468      16.076597     -1788.8468    
    122400   149.43916      37.854301      16.036191      53.890492      10.278629      6.0552794      0              3.5255567      17.994836      1515.4585    
    122500   163.87329      36.964997      17.585105      54.550102      9.4014591      5.5898161      0              5.0848142      16.888908      1496.2443    
    122600   220.77048      31.280193      23.690695      54.970889      8.1800551      5.9619463      0              1.4898865      15.648305      1182.4362    
    122700   198.21696      33.939499      21.270496      55.209995      8.7038985      6.9919139      0              2.6960586      15.547628     -748.68334    
    122800   190.00875      34.876531      20.38968       55.26621       7.6503596      7.3830961      0              3.092677       16.750398     -714.06697    
    122900   208.5223       32.936569      22.376353      55.312922      7.8595837      6.9611661      0              1.5954504      16.520369      1724.0685    
    123000   186.49172      35.282855      20.01227       55.295125      9.3671842      8.2812003      0              2.4546287      15.179841     -1172.4099    
    123100   220.79352      31.457053      23.693168      55.150221      6.9879012      5.6394119      0              2.6170027      16.212738      843.88568    
    123200   182.87813      35.205449      19.624499      54.829947      10.097904      6.6189608      0              2.650887       15.837697     -2945.308     
    123300   185.12063      34.535262      19.86514       54.400402      10.128951      4.6075357      0              4.4049711      15.393804     -538.56312    
    123400   178.92306      34.77188       19.200084      53.971964      6.3848596      9.8997643      0              2.1765911      16.310665     -1358.8722    
    123500   175.60616      34.836379      18.84415       53.680529      6.7087324      9.8145801      0              2.1093278      16.203739     -631.13526    
    123600   157.11862      36.600655      16.860267      53.460922      7.6390748      7.3534225      0              5.2878855      16.320272      752.88942    
    123700   197.1761       32.186454      21.158802      53.345256      6.8472368      6.8249918      0              2.6892925      15.824933     -44.656072    
    123800   182.40169      33.830917      19.573372      53.404289      5.8679984      8.6656268      0              3.3809774      15.916314      302.22734    
    123900   172.79067      35.21585       18.542022      53.757872      8.61538        7.0104727      0              3.4904127      16.099585     -464.70008    
    124000   150.3307       38.383171      16.131862      54.515033      9.6630111      6.7668586      0              4.7688788      17.184423      720.05776    
    124100   191.32664      35.024993      20.531101      55.556094      7.6789611      7.4973116      0              3.1584993      16.690221     -469.04803    
    124200   202.21958      35.078799      21.700013      56.778812      7.4041846      5.3431181      0              5.4319944      16.899502      2427.8393    
    124300   245.69067      31.700602      26.36486       58.065462      4.9045952      4.1480042      0              5.2771275      17.370875      1555.5483    
    124400   216.19546      36.011463      23.199753      59.211216      8.1893481      5.625902       0              4.2731882      17.923025      342.19709    
    124500   187.54498      40.123365      20.125294      60.248659      8.5509068      6.8344018      0              6.8291979      17.908858      801.568      
    124600   217.91948      37.675405      23.384756      61.060162      7.780599       8.1606274      0              4.8856214      16.848557     -691.44833    
    124700   243.80465      35.358291      26.162473      61.520764      10.761594      5.398613       0              2.9631548      16.234929     -92.793685    
    124800   192.46408      40.86076       20.65316       61.513919      9.7687052      9.565024       0              3.7029521      17.824078     -1511.7056    
    124900   237.22292      35.637413      25.456193      61.093606      9.4320676      5.5836758      0              3.0504363      17.571234     -915.1813     
    125000   200.48208      38.814496      21.513564      60.32806       9.898228       9.3309658      0              2.5211313      17.064171     -947.188      
    125100   191.81246      38.460827      20.583234      59.044061      9.0025997      6.981192       0              4.2128184      18.264217      1835.1767    
    125200   203.49558      35.374692      21.83694       57.211632      6.901547       5.942967       0              4.7224105      17.807767      24.732629    
    125300   219.13926      31.627383      23.51565       55.143033      6.1585719      5.3865363      0              3.8140964      16.268178     -1991.496     
    125400   149.57166      37.360432      16.050409      53.410842      8.0006013      7.8375758      0              4.5614606      16.960795      911.8118     
    125500   162.42295      34.846521      17.42947       52.275992      9.601274       4.5768019      0              3.5160807      17.152365     -825.72262    
    125600   123.34548      38.517441      13.2361        51.75354       8.463638       8.2090115      0              3.8020284      18.042763      1368.0847    
    125700   168.23834      33.536887      18.053515      51.590402      4.4854493      9.2260853      0              3.736635       16.088717     -139.00548    
    125800   163.91049      34.154279      17.589098      51.743376      6.444864       7.2382764      0              4.0107166      16.460422      1131.3884    
    125900   182.48493      32.537354      19.582304      52.119659      4.856451       7.3652476      0              3.2976567      17.017999      2774.9534    
    126000   181.30899      33.201743      19.456115      52.657858      6.7638912      8.0569898      0              2.7008494      15.680013     -1289.6594    
    126100   187.80192      33.190051      20.152866      53.342917      9.2630308      5.4691541      0              3.5041703      14.953695     -2130.7429    
    126200   168.7143       35.920357      18.10459       54.024947      10.530824      6.6951309      0              3.1295417      15.56486      -1620.7317    
    126300   187.68579      34.506384      20.140405      54.646788      7.6196071      8.3848107      0              2.4981283      16.003838     -156.12436    
    126400   193.98878      34.377894      20.816774      55.194667      7.035188       7.3708563      0              4.3486804      15.623169     -1555.2712    
    126500   195.95192      34.755543      21.027437      55.78298       8.0968705      8.7437128      0              2.9824034      14.932557     -3087.3087    
    126600   209.56247      33.891668      22.487973      56.379641      5.1595396      7.651516       0              5.2546118      15.826001     -1066.6671    
    126700   215.07391      33.952292      23.079401      57.031694      7.2699445      7.1186196      0              3.2765452      16.287183     -602.38224    
    126800   201.37699      35.872513      21.609596      57.482108      8.4736502      7.4647158      0              2.9178922      17.016255     -1395.9946    
    126900   178.43582      38.575409      19.147798      57.723207      10.13329       9.1311295      0              3.1915218      16.119468     -1448.6711    
    127000   203.01738      36.01638       21.785625      57.802005      6.5392008      9.0226196      0              3.6925236      16.762036      729.84311    
    127100   187.9595       37.71484       20.169776      57.884617      7.7513697      8.2925536      0              4.9692057      16.701711      592.03831    
    127200   206.10966      35.816407      22.117455      57.933863      6.6094789      8.5286668      0              2.8998943      17.778367      2511.3336    
    127300   175.94921      39.032718      18.880962      57.91368       7.4908541      10.942275      0              3.5584468      17.041142      1665.2941    
    127400   178.30394      38.702769      19.133647      57.836416      9.2876446      8.2120554      0              4.0085495      17.194519      2012.7147    
    127500   220.80171      34.096843      23.694047      57.790889      7.1828602      5.7502341      0              3.8015401      17.362208      2298.9949    
    127600   205.1896       35.753634      22.018724      57.772357      7.5882883      8.1159351      0              1.7067327      18.342678      1976.9509    
    127700   172.88852      39.116795      18.552522      57.669316      10.62045       8.977915       0              2.7017736      16.816656     -1326.0549    
    127800   191.40678      36.86668       20.539701      57.40638       10.044681      8.6234327      0              2.3194341      15.879132     -1624.2717    
    127900   214.83329      34.023247      23.053581      57.076827      7.332049       6.6194684      0              2.8877759      17.183953      1487.3224    
    128000   223.00023      32.75379       23.929968      56.683758      5.7129759      6.6542072      0              2.6645653      17.722041      639.03027    
    128100   198.78261      34.983377      21.331195      56.314572      9.0688353      6.8627779      0              3.9460767      15.105687     -3084.7786    
    128200   178.97088      36.69438       19.205216      55.899595      9.2422912      8.6220951      0              3.8655282      14.964465     -444.62151    
    128300   173.86386      36.820704      18.657185      55.47789       11.393293      5.7563415      0              3.9097754      15.761295     -2881.7286    
    128400   193.86174      34.201335      20.803141      55.004476      8.1260784      7.3908465      0              3.0774046      15.607005     -1385.6339    
    128500   174.45257      35.825123      18.720359      54.545482      9.7046361      8.2696234      0              2.6269759      15.223887     -2036.483     
    128600   183.69032      34.460324      19.711654      54.171978      7.6957886      8.3307082      0              2.0988386      16.334988     -1718.7659    
    128700   201.5325       32.250719      21.626284      53.877003      7.1932276      4.6763254      0              3.3191585      17.062007     -340.16507    
    128800   197.24006      32.594395      21.165665      53.76006       5.6809737      6.7356541      0              3.9498046      16.227963      1062.1092    
    128900   170.12348      35.6051        18.255808      53.860907      7.0612559      9.3656242      0              3.2197751      15.958444      170.3506     
    129000   157.05791      37.492882      16.853753      54.346635      8.9728483      7.7924245      0              3.8660616      16.861548      1238.3742    
    129100   164.44991      37.609268      17.646982      55.25625       6.9453683      10.826648      0              2.4823855      17.354866      3267.5549    
    129200   172.39596      38.231566      18.499666      56.731232      7.864647       10.543384      0              3.790601       16.032934      2600.0041    
    129300   242.98603      32.428903      26.074628      58.50353       6.7720925      7.1220373      0              2.8456146      15.689159      3036.2778    
    129400   214.35475      37.421862      23.002228      60.42409       8.9464782      7.8831393      0              4.6555102      15.936734     -2634.8032    
    129500   259.60201      34.054014      27.857674      61.911688      7.4377758      6.1361102      0              3.6960429      16.784085      1310.7868    
    129600   245.15703      36.468464      26.307596      62.77606       10.720324      5.652489       0              3.9207138      16.174937      1751.5615    
    129700   230.39511      38.240609      24.723506      62.964115      10.330224      7.3364311      0              5.3474461      15.226508     -2451.9464    
    129800   242.21968      36.483022      25.99239       62.475412      8.5719244      6.9164112      0              4.9362774      16.058409     -201.63208    
    129900   204.23014      39.629192      21.915765      61.544957      8.5284375      10.710276      0              4.3366271      16.053851     -1140.0606    
    130000   207.72101      38.070582      22.290367      60.360949      11.856001      7.606934       0              2.2590966      16.34855       1249.2296    
    130100   206.32258      36.852597      22.140303      58.9929        8.3343843      8.6723367      0              4.022782       15.823094     -846.43238    
    130200   187.06449      37.530501      20.073734      57.604235      9.7388158      8.5132191      0              2.6997711      16.578695      51.140437    
    130300   175.66965      37.434589      18.850963      56.285552      9.9112954      6.2735894      0              4.2723983      16.977306      779.25088    
    130400   188.28664      34.98794       20.204881      55.192821      9.8853186      6.2078133      0              2.6053189      16.289489      97.097164    
    130500   185.06537      34.567168      19.859209      54.426378      7.440234       8.1297436      0              2.9392751      16.057915     -46.722675    
    130600   178.67968      34.801518      19.173967      53.975485      8.0751432      6.1847939      0              4.5543157      15.987265      1103.5271    
    130700   186.23916      33.863702      19.985169      53.848871      7.455405       7.5943454      0              2.5420087      16.271943      2594.5628    
    130800   187.05034      33.869383      20.072216      53.941599      6.5730984      7.7331659      0              3.4843503      16.078768     -923.65545    
    130900   211.04712      31.574555      22.647289      54.221844      4.8614186      5.084982       0              5.1519283      16.476226      4145.0841    
    131000   175.51816      35.821458      18.834707      54.656165      9.2733711      6.9359523      0              2.2802393      17.331895      2180.5668    
    131100   155.88708      38.444932      16.728112      55.173044      9.4525351      8.0282667      0              4.2020846      16.762045      407.67035    
    131200   192.01383      35.144655      20.604843      55.749498      8.099648       6.3270219      0              4.1273991      16.590586      3502.512     
    131300   214.11495      33.400684      22.976496      56.37718       6.4579029      7.0617631      0              3.3403973      16.540621      1354.1874    
    131400   212.3732       34.155383      22.78959       56.944974      6.7979224      6.1999832      0              4.8360135      16.321464      158.82183    
    131500   191.39367      36.881402      20.538295      57.419697      8.6753498      6.9736175      0              5.9652015      15.267233     -1196.9793    
    131600   221.24823      34.088979      23.741962      57.830941      9.4252106      6.6727481      0              3.3052591      14.685761     -2701.0733    
    131700   191.86602      37.732717      20.588982      58.321699      10.382367      7.5909468      0              3.8408373      15.918566     -2801.5568    
    131800   219.96451      35.275715      23.604208      58.879923      8.508052       8.2177112      0              2.6044274      15.945525     -492.84128    
    131900   165.72381      41.696778      17.783683      59.480461      12.225614      9.0339679      0              5.8398897      14.597306     -2784.5926    
    132000   220.1608       36.485604      23.625271      60.110875      11.913522      6.6097667      0              2.817255       15.14506      -2319.8419    
    132100   212.37172      37.898847      22.789432      60.688279      12.907936      6.8360511      0              3.1622084      14.992651     -2095.4844    
    132200   219.82735      37.621369      23.589488      61.210857      10.709497      6.969947       0              4.3949606      15.546964     -1011.7035    
    132300   218.44545      38.270886      23.441198      61.712084      8.6451306      5.8516938      0              7.3405134      16.433548      2132.3187    
    132400   248.13653      35.527746      26.627323      62.155069      9.8105785      6.9205408      0              3.3670232      15.429603     -996.08473    
    132500   249.19671      35.667834      26.74109       62.408924      8.6064626      8.1613322      0              2.2708526      16.629187      304.81053    
    132600   214.69565      39.263973      23.03881       62.302784      6.9470544      11.599189      0              4.0128627      16.704868      1101.1145    
    132700   205.5          39.797508      22.052033      61.849542      8.762877       9.7395437      0              3.4917394      17.803348      743.68228    
    132800   172.47758      42.625507      18.508424      61.133931      12.68216       9.3581261      0              2.3699402      18.21528       3108.5542    
    132900   182.04858      40.713772      19.53548       60.249252      10.462356      10.17067       0              3.445113       16.635633     -329.14673    
    133000   190.19445      38.756255      20.409607      59.165862      9.5376705      10.210326      0              3.3857696      15.622489     -2896.3545    
    133100   221.87189      34.123354      23.808886      57.93224       7.9478376      6.9191838      0              2.4173312      16.839001      347.11768    
    133200   170.42177      38.358482      18.287817      56.646299      6.6045313      10.518699      0              3.8899605      17.345292     -1027.7537    
    133300   177.84911      36.369033      19.084839      55.453872      7.7571991      8.4043774      0              4.6705702      15.536886     -1702.0981    
    133400   206.18652      32.346658      22.125703      54.472361      7.3938045      6.4037021      0              3.0589443      15.490207     -3149.2516    
    133500   191.66793      33.129005      20.567725      53.69673       9.089076       3.5816418      0              3.8117632      16.646524      433.62358    
    133600   185.90926      33.238309      19.949767      53.188077      7.8426868      5.4005651      0              3.6741155      16.320942     -2360.9738    
    133700   180.31765      33.601256      19.349736      52.950992      8.8276218      5.7923474      0              2.8103638      16.170923      445.8908     
    133800   161.89816      35.610392      17.373156      52.983548      8.4342884      8.3322795      0              3.1659225      15.677902     -866.99871    
    133900   171.29352      34.99552       18.381364      53.376884      7.8827962      7.4183383      0              3.2022581      16.492127      555.62234    
    134000   191.4086       33.661417      20.539897      54.201314      7.5674618      6.1028557      0              3.5910091      16.40009       2725.357     
    134100   214.29622      32.602722      22.995948      55.598671      5.9383724      7.2744571      0              3.1658943      16.223999     -1192.0034    
    134200   189.05511      37.37159       20.287345      57.658935      10.174567      6.0844994      0              3.9008763      17.211647      3019.7748    
    134300   211.37907      37.305067      22.682911      59.987977      11.093076      6.4867214      0              2.6249906      17.100279     -852.39428    
    134400   250.89118      35.00013       26.922922      61.923052      8.9352503      6.2360242      0              2.6560108      17.172845      1405.5717    
    134500   222.52685      39.192651      23.87917       63.071821      10.408574      8.5130251      0              3.0129496      17.258103      807.13985    
    134600   237.25079      38.074319      25.459184      63.533502      10.809409      6.6987717      0              2.8576798      17.708459      285.41867    
    134700   219.73796      40.102398      23.579896      63.682294      12.314188      6.6554609      0              3.1376812      17.995068      515.92484    
    134800   262.13071      35.34811       28.129026      63.477136      8.3023334      7.5559802      0              2.9604362      16.52936       545.46444    
    134900   282.98118      32.677582      30.366473      63.044055      6.8123152      5.736478       0              2.5852796      17.543509      1974.6741    
    135000   221.0835       38.771017      23.724286      62.495303      9.7125674      10.841874      0              2.4829927      15.733583     -3025.1079    
    135100   203.27267      39.968809      21.81302       61.781829      10.149764      11.276876      0              2.4915618      16.050607     -1542.3605    
    135200   213.95101      37.964138      22.958904      60.923042      12.327362      7.5150532      0              2.3962918      15.725431     -1712.4598    
    135300   189.18534      39.591064      20.30132       59.892384      11.645332      8.8623441      0              3.2876854      15.795702      1398.3299    
    135400   210.98902      36.047558      22.641055      58.688612      10.098323      7.0340196      0              3.1353177      15.779897     -451.8641     
    135500   185.9233       37.492209      19.951274      57.443483      11.163534      8.4662045      0              2.1101391      15.752332     -1088.9342    
    135600   213.68627      33.461568      22.930495      56.392063      7.718434       6.3990223      0              3.0061704      16.337941      1235.6841    
    135700   191.7936       34.951864      20.58121       55.533074      9.1817786      7.2326722      0              2.3739675      16.163445     -432.79708    
    135800   184.47561      35.084639      19.795923      54.880562      8.7522396      6.4038561      0              2.4926392      17.435904      2330.0975    
    135900   166.86104      36.681768      17.905719      54.587486      9.5257262      9.7310912      0              1.826165       15.598785     -1552.8834    
    136000   164.71065      36.862302      17.674962      54.537264      10.581173      7.6962169      0              3.1185134      15.466399     -1627.6977    
    136100   219.69692      31.093573      23.575492      54.669065      7.8983242      5.5318283      0              1.3961956      16.267225      983.05921    
    136200   183.68488      35.489584      19.71107       55.200654      8.7810268      7.0730422      0              4.5617426      15.073772     -687.59014    
    136300   188.9621       36.331515      20.277365      56.60888       8.8011565      5.946151       0              6.2061753      15.378032     -1068.2519    
    136400   223.5186       35.466262      23.985593      59.451856      8.7972133      8.2118108      0              3.5131653      14.944073     -761.10264    
    136500   241.3694       36.768651      25.901148      62.669799      8.4497289      7.585019       0              5.0953926      15.63851      -654.72349    
    136600   206.61964      42.915634      22.17218       65.087814      9.0384124      10.352184      0              7.8114976      15.71354       1359.7393    
    136700   208.46159      44.168072      22.369838      66.53791       12.116849      10.566501      0              6.0437187      15.441003      902.89963    
    136800   241.74419      41.200263      25.941367      67.14163       11.709667      10.192759      0              3.2448094      16.053027     -885.60831    
    136900   230.47864      42.466338      24.73247       67.198808      10.508616      8.5419951      0              7.2991511      16.116576     -757.44007    
    137000   228.07963      42.099209      24.475034      66.574243      11.082595      8.7843758      0              6.7418913      15.490346     -361.89555    
    137100   277.59392      35.426779      29.788371      65.21515       9.3968303      6.9339869      0              2.8734721      16.22249      -255.00327    
    137200   264.88204      35.000707      28.424269      63.424976      8.2628404      7.0309673      0              4.7628797      14.944019     -3399.9165    
    137300   232.27886      36.504458      24.92565       61.430108      8.5660569      7.3690151      0              5.0892051      15.480181      27.919058    
    137400   172.1094       41.124024      18.468916      59.592939      9.5866625      8.9304259      0              5.6318551      16.97508       1180.7769    
    137500   194.17806      37.415673      20.837085      58.252758      9.6440148      6.9801732      0              4.3201077      16.471377     -163.22726    
    137600   182.65409      37.675318      19.600458      57.275775      10.936489      7.9450552      0              2.3328111      16.460962     -524.62865    
    137700   213.16182      33.746059      22.874216      56.620275      8.5824607      5.6171994      0              2.709737       16.836662      827.29818    
    137800   185.09084      36.371041      19.861943      56.232984      10.341747      6.4843235      0              3.2216522      16.323318      347.54962    
    137900   203.11504      34.280064      21.796105      56.07617       7.1612648      7.4633862      0              3.0085321      16.646881     -1589.0052    
    138000   203.97235      34.240828      21.888102      56.12893       7.1383032      6.7873751      0              4.4631139      15.852036     -1769.0237    
    138100   198.44602      35.068936      21.295076      56.364012      7.5351507      7.4619433      0              3.5128022      16.55904       986.50681    
    138200   184.51191      37.004646      19.799819      56.804464      9.564535       6.1705114      0              4.3424908      16.927108      1561.1028    
    138300   197.87262      36.29131       21.233545      57.524854      9.2694534      6.8700933      0              2.1283112      18.023452      256.22868    
    138400   199.48545      37.217624      21.406617      58.62424       12.149471      6.828453       0              2.3870635      15.852637     -304.87414    
    138500   201.78894      38.551528      21.653802      60.205329      10.134329      9.9671342      0              2.1405993      16.309465     -24.101861    
    138600   257.18505      34.786199      27.598312      62.384511      8.0805745      5.0827951      0              4.5724248      17.050405      768.83213    
    138700   259.45277      37.023281      27.841659      64.86494       7.2681575      8.2394174      0              3.5014576      18.014248      5016.1615    
    138800   210.60844      44.266555      22.600215      66.86677       9.6322701      13.034954      0              4.2312578      17.368073      317.13114    
    138900   258.08933      40.380081      27.69535       68.075431      13.468301      6.9306844      0              3.3251905      16.655905      2462.6807    
    139000   227.81193      44.085521      24.446308      68.531829      14.228681      7.952319       0              4.5466149      17.357906      391.98276    
    139100   239.9033       42.60182       25.743822      68.345641      12.078482      10.928558      0              2.5559561      17.038823     -3287.221     
    139200   255.75744      40.330276      27.445117      67.775393      9.5282537      7.6676042      0              5.9323187      17.2021        333.48211    
    139300   206.20377      44.917871      22.127554      67.045425      14.190371      8.9857661      0              4.6106769      17.131057     -341.27733    
    139400   219.25591      42.492296      23.528168      66.020465      10.878001      10.923324      0              4.1881999      16.502771     -4272.129     
    139500   223.80937      40.89196       24.016796      64.908755      9.3905611      10.072046      0              4.1548277      17.274524     -807.53203    
    139600   222.39326      39.907161      23.864834      63.771995      12.505275      7.1902532      0              4.3898969      15.821736     -2477.8419    
    139700   195.94329      41.838974      21.02651       62.865484      12.999519      9.9525906      0              1.8606361      17.026229     -4260.0206    
    139800   219.48749      38.648438      23.553018      62.201456      10.49601       7.8947557      0              1.8211148      18.436558      1870.791     
    139900   216.44739      38.435163      23.226788      61.661951      10.053117      6.6069452      0              3.3725813      18.40252       1530.3598    
    140000   230.38689      36.472452      24.722625      61.195076      10.588629      6.5597347      0              2.3349034      16.989184     -2417.0317    
    140100   202.96742      39.020371      21.780263      60.800634      10.856842      7.2763946      0              3.9320444      16.95509      -397.50268    
    140200   253.03815      33.433061      27.153312      60.586372      7.682739       6.38886        0              1.6163241      17.745137      551.68173    
    140300   201.74942      38.84086       21.649561      60.490422      9.6917749      7.2949839      0              2.6674171      19.186685      1349.045     
    140400   251.57503      33.460709      26.996306      60.457015      4.7515758      6.1721279      0              4.0175217      18.519484      2286.8858    
    140500   222.14793      36.655964      23.838508      60.494472      7.2061519      10.062635      0              2.2487674      17.13841       990.45751    
    140600   184.5741       40.807829      19.806492      60.614321      11.592556      7.3727081      0              4.8120756      17.03049      -1175.4587    
    140700   224.46306      36.856179      24.086942      60.943121      7.7107962      5.199905       0              3.7025551      20.242923      2341.809     
    140800   190.3491       41.17181       20.426202      61.598012      7.5664509      6.7479644      0              8.3020105      18.555384      11.469549    
    140900   210.52849      40.171778      22.591635      62.763413      10.992213      8.1757011      0              3.9794476      17.024415     -3216.6329    
    141000   211.3628       41.772259      22.681165      64.453424      10.025281      10.18293       0              5.4979001      16.066149      127.58591    
    141100   261.5967       38.3103        28.071723      66.382024      9.7730436      7.8859961      0              3.0739848      17.577276     -107.61175    
    141200   251.4999       41.11541       26.988243      68.103654      11.009595      8.6090502      0              4.6407084      16.856057     -1355.5577    
    141300   247.22368      42.887948      26.529366      69.417314      10.927799      10.179466      0              4.4225875      17.358095      5714.4201    
    141400   255.46477      42.598113      27.413711      70.011824      13.070118      7.6423209      0              5.245667       16.640007     -580.32324    
    141500   266.90973      41.071342      28.641859      69.713201      9.9164855      10.776823      0              4.2850884      16.092944     -82.234622    
    141600   241.37134      42.622371      25.901356      68.523727      10.55565       9.9625256      0              5.4164354      16.68776      -1300.3948    
    141700   248.44062      40.121716      26.659954      66.78167       11.259305      9.0525117      0              3.3257385      16.484161     -2282.3898    
    141800   239.16981      39.000095      25.665112      64.665207      9.8070267      7.0403045      0              5.5665609      16.586203     -2843.2144    
    141900   226.02146      38.231172      24.254173      62.485345      11.412704      7.3197666      0              2.8783495      16.620351     -482.4897     
    142000   237.38404      35.182307      25.473482      60.65579       8.8549237      8.3286521      0              2.2503594      15.748372     -2132.8961    
    142100   165.18526      41.726272      17.725892      59.452164      13.349149      10.816529      0              2.8139482      14.746646     -5393.7119    
    142200   156.63855      42.032361      16.808751      58.841112      12.637989      9.0862521      0              4.8806511      15.427469     -1911.101     
    142300   217.89542      35.128342      23.382175      58.510517      9.1481774      8.3354638      0              2.2954168      15.349284     -1391.9201    
    142400   230.88731      33.515214      24.776323      58.291538      8.1347557      8.176155       0              2.4083712      14.795932     -311.9213     
    142500   222.38269      34.325023      23.8637        58.188723      5.4703096      9.414169       0              2.9346647      16.505879      1714.0301    
    142600   249.16869      31.465937      26.738084      58.204021      6.3660815      6.5001665      0              2.9646395      15.63505       615.36514    
    142700   210.57268      35.802053      22.596377      58.398431      6.3765052      8.4386334      0              5.537695       15.44922       1123.6979    
    142800   222.55733      34.826274      23.88244       58.708715      7.6168126      7.2128206      0              4.3301934      15.666448      168.96376    
    142900   219.67929      35.711214      23.573601      59.284815      7.9952851      6.8097615      0              5.3152833      15.590884      2182.6013    
    143000   211.743        37.311141      22.721964      60.033105      9.2488501      7.2708377      0              6.1186238      14.67283      -2367.7003    
    143100   215.38221      37.793494      23.112485      60.905978      9.11776        7.0810927      0              5.9954022      15.599239      1631.4492    
    143200   245.13293      35.856465      26.305009      62.161475      9.4432629      6.7825925      0              2.936891       16.693719      1492.0775    
    143300   249.06544      37.282304      26.727004      64.009307      8.8144152      7.0324388      0              5.206553       16.228896     -74.289712    
    143400   251.58557      39.427677      26.997437      66.425114      11.361412      6.6726024      0              4.3770958      17.016566      3701.4038    
    143500   262.46206      40.759847      28.164583      68.92443       11.292792      7.9540712      0              5.2414114      16.271572     -2190.1581    
    143600   251.96978      43.742392      27.038666      70.781058      14.352037      7.94547        0              4.1231669      17.321718      797.39738    
    143700   219.80783      48.161562      23.587394      71.748955      18.087686      8.9436596      0              4.9975155      16.132701     -2829.5897    
    143800   263.45258      43.504007      28.270875      71.774883      14.424616      11.217106      0              3.5217682      14.340518     -2438.0905    
    143900   260.98179      42.825636      28.005737      70.831373      10.303779      12.532514      0              4.490772       15.498571     -3181.5505    
    144000   293.75568      37.235249      31.522676      68.757924      10.968559      5.5917636      0              4.2429747      16.431952      62.114032    
    144100   239.97148      40.398921      25.751138      66.150059      11.623812      5.0965989      0              6.0573457      17.621164      3515.9606    
    144200   221.92649      39.705925      23.814746      63.520671      11.338303      9.4325266      0              3.7894548      15.14564      -2003.0066    
    144300   245.34338      35.429075      26.327593      61.756668      9.1764411      6.4620764      0              3.8972316      15.893325      1304.2842    
    144400   202.92153      39.057507      21.775339      60.832847      13.024795      7.1355326      0              1.8266661      17.070514     -1627.1116    
    144500   188.39164      40.175928      20.216149      60.392077      13.308518      6.2743437      0              3.1039999      17.489066      2750.4143    
    144600   200.95204      38.625815      21.563995      60.189811      11.037166      7.3830962      0              3.4312922      16.774261      373.15429    
    144700   206.85038      37.962848      22.196941      60.15979       8.8997463      9.3579005      0              3.7535949      15.951607      271.20497    
    144800   236.31571      34.888643      25.358841      60.247484      7.4133314      7.2035248      0              3.5393937      16.732393      2578.5821    
    144900   211.40293      37.717587      22.685471      60.403059      6.704735       10.584709      0              3.9605404      16.467603      1351.9683    
    145000   215.13899      37.611595      23.086385      60.69798       8.1678115      8.3948721      0              4.5458172      16.503094      2387.0076    
    145100   208.42859      38.821108      22.366297      61.187405      11.789062      8.8724217      0              2.8665608      15.293064     -3117.8371    
    145200   231.06352      36.9956        24.795233      61.790832      12.373491      4.5193808      0              4.2709514      15.831777      446.68104    
    145300   218.62587      38.903596      23.460558      62.364154      11.311401      8.8562168      0              2.8296812      15.906298     -859.13394    
    145400   259.49947      35.01119       27.846671      62.857861      8.3025052      6.9602688      0              4.3905041      15.357912     -2857.73      
    145500   219.59978      39.89438       23.565068      63.459449      9.1945677      7.5120773      0              6.2080507      16.979685     -103.18274    
    145600   208.08178      41.895816      22.329082      64.224898      8.6111374      10.311651      0              5.1306601      17.842368     -268.99735    
    145700   225.74084      41.056768      24.224061      65.280828      8.6478758      9.6689842      0              5.1423484      17.597559      2712.916     
    145800   269.75507      37.620344      28.94719       66.567534      9.5181146      7.8319584      0              3.4181009      16.85217       265.05006    
    145900   231.46844      43.105817      24.838684      67.944501      14.453956      8.5042592      0              3.7659944      16.381608     -239.99272    
    146000   261.5205       41.061598      28.063545      69.125144      12.782077      7.6133788      0              2.7015784      17.964564      878.38118    
    146100   210.90162      47.486194      22.631676      70.11787       14.00451       9.5079355      0              7.1735958      16.800153     -229.89165    
    146200   257.64409      43.160578      27.647571      70.808149      12.924224      7.7611821      0              5.348547       17.126624      1441.8918    
    146300   295.63558      39.130609      31.724406      70.855015      10.600232      6.8918008      0              5.795467       15.843109     -1763.5677    
    146400   281.11762      39.774476      30.166496      69.940972      11.924835      5.5838159      0              5.2109951      17.05483       2021.3618    
    146500   261.85586      39.721772      28.099533      67.821306      11.211302      6.4824345      0              5.5930351      16.435001      177.94033    
    146600   219.29969      41.397374      23.532865      64.930239      11.721847      9.9063187      0              3.6676124      16.101596      1540.3371    
    146700   225.65401      37.935212      24.214743      62.149955      8.6493316      8.4909728      0              4.5406847      16.254223     -58.860648    
    146800   231.15976      35.35642       24.80556       60.16198       9.7218955      4.7131165      0              4.6001066      16.321302     -626.92834    
    146900   191.34326      38.434799      20.532885      58.967683      10.116543      6.6392664      0              4.7363709      16.942618      1974.6657    
    147000   192.60101      37.614892      20.667853      58.282745      8.660724       7.7369999      0              5.1933126      16.023856     -425.10679    
    147100   199.17463      36.611843      21.373263      57.985105      9.8561707      7.093113       0              2.6564865      17.006072      175.31911    
    147200   209.60919      35.550898      22.492987      58.043885      9.9500657      6.0213769      0              4.070457       15.508999     -2973.8659    
    147300   188.75871      38.146157      20.255539      58.401696      10.046611      8.1845168      0              4.5971821      15.317847      253.76268    
    147400   179.82279      39.578382      19.296633      58.875015      10.699805      8.9850485      0              4.6198657      15.273663     -2102.6644    
    147500   201.1463       37.920237      21.584841      59.505078      10.17114       10.652949      0              2.1452724      14.950877     -1500.2859    
    147600   213.51069      37.437321      22.911654      60.348975      7.0339185      9.3338981      0              4.3490467      16.720458      1091.6536    
    147700   217.43919      38.266427      23.333217      61.599644      8.3950274      11.26655       0              3.1306333      15.474217     -2207.1095    
    147800   252.16735      36.05795       27.059867      63.117816      8.4243914      8.3533265      0              3.7646637      15.515568      326.77784    
    147900   273.0057       35.419103      29.296013      64.715116      8.3299562      8.4357161      0              3.8047888      14.848642     -1607.9251    
    148000   234.3541       41.090308      25.148342      66.23865       10.375883      9.1444243      0              5.4048212      16.16518      -1201.6314    
    148100   261.66324      39.535456      28.078863      67.614319      7.4252803      9.6538026      0              5.8075757      16.648797      390.82485    
    148200   283.96332      38.273385      30.471866      68.745252      9.2455424      7.6378615      0              4.8381119      16.55187       1544.6776    
    148300   288.14443      38.651255      30.920537      69.571792      12.726351      7.5868357      0              1.7876383      16.55043       909.09618    
    148400   247.49464      43.306237      26.558442      69.864679      12.665175      8.2945663      0              5.6020361      16.744459      2549.4794    
    148500   267.60674      40.898211      28.716655      69.614866      9.7987892      12.188684      0              2.5075538      16.403184      1824.7045    
    148600   244.67714      42.365807      26.256099      68.621907      11.83946       9.793952       0              5.181906       15.55049       1556.5396    
    148700   237.44047      41.015814      25.479538      66.495352      11.643663      8.1545045      0              4.5982586      16.619387      1754.0575    
    148800   205.25517      40.784038      22.025761      62.809798      10.241647      8.6484526      0              5.7207571      16.173181     -1003.3412    
    148900   238.43808      33.567875      25.586591      59.154466      7.5678705      7.2848875      0              2.9056428      15.809474     -818.80874    
    149000   205.5845       35.128601      22.061101      57.189702      8.9644354      8.1943222      0              2.7674546      15.202389     -2115.6691    
    149100   196.56078      35.207331      21.092773      56.300104      9.6311728      7.2987221      0              2.6916744      15.585762     -2940.1797    
    149200   195.45924      35.027202      20.974567      56.001769      8.8257265      6.6221787      0              3.6514285      15.927869     -2004.5504    
    149300   208.5245       33.763044      22.376589      56.139634      7.6997711      7.104223       0              3.2061477      15.752903     -488.25209    
    149400   223.70163      32.659364      24.005234      56.664598      5.9258527      7.2173408      0              2.7808981      16.735273     -955.28435    
    149500   182.75949      38.025647      19.611767      57.637414      9.9163886      6.4703577      0              4.9750893      16.663811      1048.4257    
    149600   218.08063      35.523404      23.402049      58.925453      7.6249377      7.7872669      0              3.3423642      16.768835      570.79066    
    149700   199.80853      39.086594      21.441286      60.527879      7.9357839      10.512075      0              4.4841167      16.154618      1055.8388    
    149800   228.0007       37.802536      24.466564      62.2691        11.316763      7.8526897      0              2.7041233      15.92896       2630.2837    
    149900   197.03546      42.789594      21.14371       63.933304      10.932933      10.883671      0              4.0285888      16.944401      1990.1855    
    150000   223.37002      41.478599      23.969649      65.448248      10.559088      9.2787019      0              5.5240099      16.116799      947.50164    
    150100   257.52838      38.942302      27.635154      66.577457      10.558755      8.1577324      0              4.4294881      15.796327      812.34748    
    150200   285.23627      36.626148      30.608466      67.234614      8.5386006      7.1391131      0              4.869          16.079435      747.78017    
    150300   278.53414      37.6453        29.889265      67.534565      11.355848      7.6989247      0              1.7344387      16.856088      81.793463    
    150400   265.6188       39.101434      28.503331      67.604765      11.363571      6.6998557      0              4.8904596      16.147548     -1679.1666    
    150500   268.71967      38.628443      28.836082      67.464526      12.280253      8.6845106      0              2.1096511      15.554029     -2067.0618    
    150600   223.08116      43.096886      23.938652      67.035538      15.47118       7.177741       0              4.496346       15.951619     -1032.1409    
    150700   212.3426       43.427882      22.786306      66.214188      17.229079      8.0084445      0              2.1680275      16.022331     -1621.4089    
    150800   232.38573      40.157019      24.937118      65.094137      9.9705267      10.861811      0              2.7002626      16.624419     -2065.4609    
    150900   285.14704      33.031121      30.59889       63.630011      7.7147517      6.575965       0              2.8168142      15.92359      -1106.2205    
    151000   234.9257       36.724378      25.20968       61.934059      6.3717996      10.201853      0              4.6888029      15.461923      101.62835    
    151100   207.44405      37.690364      22.260647      59.951011      12.406331      6.8843984      0              1.8728499      16.526785      1394.8566    
    151200   193.47997      37.222807      20.762173      57.98498       9.5761122      7.2392843      0              3.7857742      16.621637      1822.4364    
    151300   207.70916      34.065102      22.289096      56.354198      8.1219772      7.7249214      0              2.6419023      15.576301     -383.52066    
    151400   148.72478      39.378156      15.959532      55.337688      11.79532       7.4867574      0              3.2863112      16.809767      3196.9106    
    151500   185.53071      34.982171      19.909145      54.891316      9.2491214      5.8715289      0              3.6151404      16.246381      972.79837    
    151600   180.88122      35.565447      19.410213      54.97566       8.0148052      8.3446391      0              3.4253707      15.780632     -1395.5302    
    151700   208.45902      33.127735      22.369563      55.497298      4.911662       8.3579834      0              3.7282066      16.129883      1886.6556    
    151800   215.8843       33.184144      23.166363      56.350507      6.1392141      8.8784871      0              2.15154        16.014903      682.02306    
    151900   199.15961      36.00114       21.371651      57.372791      9.2051642      6.6006453      0              3.9635774      16.231753      817.02463    
    152000   192.07802      37.694776      20.611731      58.306507      10.636314      7.1988864      0              3.0743433      16.785232     -458.0734     
    152100   192.42574      38.401977      20.649045      59.051022      10.647323      7.7295713      0              4.2418801      15.783203     -1614.5534    
    152200   186.14076      39.728193      19.974609      59.702803      9.3475813      7.3168662      0              7.6990196      15.364726     -1316.443     
    152300   233.08938      35.384415      25.012626      60.397042      7.9479705      7.0375706      0              3.8484296      16.550444     -704.42256    
    152400   220.04861      37.561903      23.613232      61.175135      8.693901       8.0763119      0              4.014686       16.777004      261.51092    
    152500   199.23034      40.72904       21.37924       62.108281      11.608822      7.9305345      0              5.5548491      15.634835     -1685.2059    
    152600   167.32074      45.18324       17.955048      63.138288      12.761585      11.470778      0              4.6291527      16.321725      1500.0938    
    152700   197.55587      42.954239      21.199554      64.153793      12.178358      10.453608      0              3.3739249      16.948347     -413.05574    
    152800   232.6281       40.1963        24.963126      65.159426      10.608554      8.8879028      0              3.7074561      16.992387      798.85508    
    152900   239.52348      40.343325      25.703064      66.04639       11.737243      9.1971591      0              4.0607238      15.348199     -1830.0818    
    153000   250.94259      39.843618      26.928439      66.772057      10.307297      8.8064797      0              5.0009779      15.728864      1479.7216    
    153100   254.16258      40.099161      27.273974      67.373134      7.632361       12.88117       0              3.9056764      15.679953     -1517.4617    
    153200   318.86905      33.707291      34.217571      67.924861      7.1870936      7.9546319      0              2.2462816      16.319284      236.68872    
    153300   254.76935      41.232245      27.339086      68.571331      12.199207      7.7931121      0              4.3402728      16.899653      4583.3927    
    153400   226.69949      44.720786      24.326933      69.047718      10.732751      12.101949      0              6.5506716      15.335414     -1831.1912    
    153500   230.09861      44.505542      24.691689      69.197231      12.354413      8.4488921      0              7.3266221      16.375614      2898.5921    
    153600   195.37893      48.032273      20.965949      68.998222      14.925387      10.919399      0              5.4576412      16.729847      1050.0509    
    153700   254.90787      40.908575      27.35395       68.262524      10.906092      8.6012847      0              5.5811868      15.820011      137.72625    
    153800   243.16526      40.8719        26.09386       66.96576       10.897453      10.857939      0              2.7242244      16.392284      618.45321    
    153900   244.99094      38.790482      26.289773      65.080255      9.6460518      9.0056455      0              3.6658067      16.472978      1369.5479    
    154000   222.78786      39.111675      23.907178      63.018853      10.356931      7.3290304      0              4.6694088      16.756305      1452.5223    
    154100   221.79695      37.479797      23.800845      61.280642      9.5725424      10.068198      0              2.138632       15.700425      1253.8473    
    154200   221.58907      36.172318      23.778538      59.950855      7.8635479      9.2749961      0              2.9876918      16.046082      1421.8744    
    154300   178.18186      39.907394      19.120546      59.02794       12.929879      7.7568112      0              2.8738168      16.346887     -1874.4523    
    154400   204.0857       36.509943      21.900266      58.410208      8.8201194      8.972879       0              2.3777969      16.339147      1371.5103    
    154500   207.68887      35.805059      22.286918      58.091977      7.8800368      9.7721314      0              2.2472618      15.905629     -664.11141    
    154600   226.89868      33.866615      24.348307      58.214922      9.0241296      6.1954501      0              3.126159       15.520876     -2157.8985    
    154700   230.13433      34.070852      24.695523      58.766375      8.888433       5.4328729      0              2.3089815      17.440565     -1165.4146    
    154800   178.53451      40.711105      19.158388      59.869493      9.2147501      10.504557      0              4.3119342      16.679863     -621.95989    
    154900   197.86521      40.276779      21.23275       61.509528      10.598335      10.292352      0              3.2678033      16.118288     -2645.8084    
    155000   215.47613      40.450722      23.122562      63.573284      9.4540489      9.901518       0              4.4888758      16.606279      102.88372    
    155100   185.93309      45.949398      19.952324      65.901723      12.124577      12.95999       0              3.4676072      17.397225      1854.7293    
    155200   238.31697      42.228758      25.573594      67.802352      11.475084      10.385348      0              4.9450308      15.423295     -1258.1193    
    155300   293.93864      37.413628      31.542309      68.955936      11.344441      7.1744568      0              3.7599299      15.1348       -930.44264    
    155400   296.76926      37.483484      31.84606       69.329545      9.6032281      7.1600514      0              4.304353       16.415852      2547.1287    
    155500   271.18219      40.128076      29.100333      69.228409      11.923688      8.0820304      0              4.2821026      15.840256      30.570292    
    155600   291.47625      37.537435      31.278072      68.815507      10.104452      7.2163914      0              3.2234789      16.993112     -1192.7973    
    155700   239.17252      42.525734      25.665403      68.191137      10.886596      12.134492      0              3.5106759      15.99397       121.66847    
    155800   238.23523      41.879595      25.564823      67.444418      11.244719      11.51104       0              2.4557723      16.668065     -495.13183    
    155900   243.79344      40.343425      26.16127       66.504695      10.553817      7.7024568      0              5.0690328      17.018118     -3676.8692    
    156000   259.28695      37.736405      27.823865      65.56027       9.2359151      7.9028937      0              2.409792       18.187804      3355.7757    
    156100   234.35545      39.509589      25.148487      64.658076      10.511604      10.453441      0              2.1825937      16.36195       54.709494    
    156200   253.94391      36.543917      27.250508      63.794424      10.256471      7.919069       0              3.0520034      15.316374     -629.88658    
    156300   253.35732      35.838356      27.187561      63.025918      9.1775742      6.220578       0              3.7921142      16.64809       2902.4278    
    156400   219.31544      38.832111      23.534556      62.366667      10.49924       8.0076829      0              3.5921457      16.733042      233.27998    
    156500   188.20795      41.656925      20.196437      61.853362      11.140269      9.3627691      0              5.1841091      15.969778      1339.4625    
    156600   205.2468       39.380776      22.024862      61.405638      11.846165      7.2553238      0              3.9864466      16.29284       1180.2841    
    156700   260.68114      33.036878      27.973475      61.010353      7.9227338      5.6335939      0              2.4519907      17.02856       533.84313    
    156800   206.87056      38.518206      22.199107      60.717313      10.070278      8.4938768      0              3.2466467      16.707405     -987.20518    
    156900   218.37872      37.155252      23.434038      60.58929       8.3328823      10.340302      0              2.4629557      16.019112      316.14832    
    157000   236.74489      35.361845      25.404895      60.76674       9.7402943      7.0568302      0              3.2855016      15.279219     -2609.0953    
    157100   223.35084      37.309859      23.967592      61.277451      9.0171297      7.9454945      0              3.2407743      17.106461      1092.6298    
    157200   228.22836      37.652725      24.490994      62.143719      11.628249      6.6924615      0              3.1164167      16.215598      62.962321    
    157300   213.98943      40.378033      22.963026      63.341059      13.15608       8.5475095      0              3.1686133      15.50583      -2699.6631    
    157400   225.95457      40.586967      24.246996      64.833962      11.646401      8.4333346      0              4.4745948      16.032636      139.89378    
    157500   236.89994      41.053558      25.421534      66.475093      9.7717565      9.5882464      0              4.5897836      17.103772      355.96063    
    157600   213.97148      45.085861      22.9611        68.046962      12.917887      11.476335      0              3.0032538      17.688386      1905.8114    
    157700   260.65469      41.601956      27.970636      69.572592      11.038228      10.182035      0              3.0822742      17.299419      1916.5621    
    157800   274.22813      41.522138      29.427191      70.949329      9.7515898      11.309699      0              3.4243814      17.036468      1194.6118    
    157900   266.79462      43.315778      28.629507      71.945284      11.642532      11.836879      0              4.2586766      15.57769      -1475.9078    
    158000   274.64647      43.036701      29.472082      72.508783      12.268382      11.257061      0              4.1932918      15.317966     -2810.854     
    158100   301.97245      40.149082      32.40441       72.553492      12.741112      7.2452872      0              4.0226201      16.140063      2364.0367    
    158200   259.47578      44.043186      27.844128      71.887314      14.400778      6.7415861      0              5.5447365      17.356085     -590.26278    
    158300   307.97893      37.374305      33.048961      70.423266      7.3471189      9.9985802      0              3.5407575      16.487848     -583.86177    
    158400   259.28327      40.701898      27.82347       68.525368      11.12059       8.7814283      0              3.8015198      16.99836      -143.44244    
    158500   248.67644      39.635428      26.685261      66.320689      11.528071      6.3444484      0              5.0193923      16.743516     -2948.4105    
    158600   257.55574      36.529424      27.63809       64.167514      10.088245      6.5317862      0              3.4605905      16.448802     -2586.8791    
    158700   187.01725      42.378559      20.068664      62.447224      9.0285795      11.867901      0              5.132994       16.349085     -642.5378     
    158800   221.9708       37.524231      23.819501      61.343732      10.743184      6.4993177      0              5.026864       15.254865     -1566.8387    
    158900   219.00919      37.309499      23.501693      60.811192      11.58097       5.1852857      0              3.8435912      16.699652      543.38442    
    159000   246.96231      34.13299       26.501318      60.634309      10.654447      5.0879772      0              2.3108274      16.079739      2100.6852    
    159100   184.53375      40.88204       19.802162      60.684202      11.940174      8.0696559      0              4.8933342      15.978876      140.04174    
    159200   223.04182      36.989525      23.93443       60.923955      9.9514649      6.1720721      0              4.2880613      16.577927      1697.9707    
    159300   265.69528      32.8785        28.511538      61.390038      5.6712111      6.6116188      0              3.2061583      17.389511      2221.7937    
    159400   214.81671      39.097324      23.051801      62.149126      9.6258002      9.6478353      0              4.3170675      15.506621     -1835.7148    
    159500   246.28282      36.53815       26.428403      62.966553      8.5838985      7.8383142      0              3.7981917      16.317745      2514.5865    
    159600   236.32864      38.453765      25.360228      63.813993      14.108472      7.5082359      0              1.8224653      15.014591     -4111.6312    
    159700   220.31266      40.9699        23.641567      64.611467      14.31999       6.7809013      0              3.7383688      16.13064       1644.3381    
    159800   222.75429      41.373173      23.903576      65.276749      10.45927       10.888194      0              3.9675347      16.058175      325.51988    
    159900   212.96008      43.014399      22.852568      65.866967      9.0935087      10.790308      0              7.5245472      15.606035      414.23137    
    160000   253.89523      39.02072       27.245285      66.266005      10.569425      7.4274688      0              4.5963818      16.427444      1190.1967    
    160100   250.28897      39.761213      26.858299      66.619512      7.5122855      9.3730996      0              5.7095979      17.16623       819.17902    
    160200   263.45158      38.769837      28.270768      67.040605      11.7465        7.1424523      0              3.9030774      15.977808     -1953.4002    
    160300   215.97675      44.392538      23.176284      67.568821      11.754141      10.705697      0              5.5948988      16.3378       -576.20663    
    160400   212.34427      45.496468      22.786485      68.282954      14.213009      11.001687      0              3.2527951      17.028977      1422.5891    
    160500   289.12911      38.272856      31.026202      69.299059      11.876335      7.5436979      0              2.6773324      16.175491     -871.42465    
    160600   274.92138      41.425274      29.501583      70.926857      13.709938      8.0867089      0              3.8978521      15.730776      2286.2275    
    160700   230.48621      48.278747      24.733282      73.012029      14.299392      12.231338      0              5.7412788      16.006738     -2398.1672    
    160800   304.50342      42.273273      32.676007      74.94928       11.588883      9.1019686      0              5.3951864      16.187235      1252.6886    
    160900   273.83922      46.993887      29.385457      76.379344      15.159848      11.498148      0              3.4142249      16.921667      2260.2341    
    161000   298.86859      44.866449      32.071338      76.937788      13.13771       12.362632      0              2.2950495      17.071058      864.365      
    161100   271.20832      47.587904      29.103138      76.691042      17.630068      7.3402296      0              5.0194346      17.598172      2817.1189    
    161200   260.38911      47.577314      27.942137      75.519451      16.660686      12.87331       0              3.4990691      14.544249     -6432.0445    
    161300   249.69366      46.628907      26.794417      73.423324      14.008658      10.171858      0              5.3726695      17.075722      1543.8815    
    161400   256.8798       43.17589       27.565556      70.741446      12.803365      9.3911309      0              5.0441889      15.937205     -985.34288    
    161500   253.78216      40.817822      27.23315       68.050972      10.416         10.696826      0              3.2244142      16.480582      1256.9426    
    161600   237.08609      40.602831      25.44151       66.044341      10.691507      11.165867      0              2.577152       16.168305      505.16323    
    161700   230.97801      39.933466      24.786057      64.719523      11.20239       8.2092019      0              3.2918375      17.230037      1283.1413    
    161800   256.00225      36.386794      27.471387      63.85818       10.969961      5.7712682      0              2.827979       16.817586      31.124754    
    161900   243.49753      37.15399       26.129516      63.283506      6.6397551      9.2956405      0              5.445499       15.773095      1709.4205    
    162000   247.18208      36.361219      26.524902      62.886121      11.180574      8.1490045      0              2.0751337      14.956506     -1001.6542    
    162100   232.25985      37.761121      24.92361       62.684731      11.133879      6.425088       0              4.4154013      15.786752     -2417.844     
    162200   257.73234      35.026793      27.657041      62.683834      9.6957742      6.1356461      0              3.6932583      15.502114     -467.16554    
    162300   220.6823       39.237848      23.681232      62.91908       7.3114502      12.418488      0              3.8562564      15.651653      269.05555    
    162400   235.69743      38.06176       25.292493      63.354254      8.857667       11.4551        0              2.1641886      15.584805      1390.0489    
    162500   238.73644      38.353956      25.618607      63.972563      12.847273      6.3761906      0              2.601817       16.528675     -214.31693    
    162600   223.68666      40.94557       24.003628      64.949198      15.678531      5.8506154      0              3.7126232      15.7038       -1903.785     
    162700   267.35495      37.78053       28.689636      66.470166      8.8685682      6.5748869      0              5.9457845      16.391291      1899.3243    
    162800   261.48888      40.632294      28.060153      68.692447      13.017013      8.0518086      0              4.0690542      15.494419     -1155.8728    
    162900   231.31984      46.440485      24.822738      71.263222      13.634546      9.6579734      0              6.5259599      16.622006      2133.8912    
    163000   277.90578      43.947626      29.821837      73.769462      13.409986      10.157163      0              3.7340525      16.646424     -258.54214    
    163100   276.75431      46.130492      29.698273      75.828765      13.345161      12.573345      0              3.8480494      16.363937      1488.5763    
    163200   286.79706      46.262743      30.775952      77.038694      12.562199      12.7598        0              4.9556594      15.985085     -569.35027    
    163300   305.7262       44.50401       32.807223      77.311232      12.54383       9.6836357      0              6.4386871      15.837857      1612.8751    
    163400   248.63618      50.046409      26.68094       76.727349      14.023535      11.303588      0              9.5463337      15.172952     -1184.1722    
    163500   309.53141      42.298906      33.215556      75.514462      11.159335      8.5155977      0              5.9562453      16.667727      1504.8141    
    163600   281.50624      43.682799      30.208198      73.890998      15.719888      7.2613548      0              4.4830322      16.218524     -246.05982    
    163700   282.10415      41.940777      30.27236       72.213137      11.095959      9.7543958      0              4.497986       16.592436      532.75992    
    163800   275.43307      41.246749      29.556491      70.80324       14.481036      8.9168747      0              2.2263307      15.622507     -2697.0124    
    163900   266.26498      41.227993      28.572672      69.800665      12.368084      10.427414      0              2.6522535      15.780242     -1243.8653    
    164000   265.70102      40.596323      28.512154      69.108477      11.021307      8.9428712      0              3.9781096      16.654035     -1183.333     
    164100   273.57292      39.241074      29.35688       68.597954      10.541135      7.2020678      0              4.0539283      17.443943      2775.7483    
    164200   221.3475       44.443409      23.752615      68.196024      13.78444       10.668931      0              4.1170011      15.873037     -1880.9997    
    164300   211.92853      45.048675      22.741873      67.790549      11.640006      10.921907      0              5.4930422      16.99372       1119.9641    
    164400   244.48339      41.128315      26.235308      67.363623      14.727809      9.0047845      0              1.412388       15.983334     -1786.7796    
    164500   262.79248      38.76827       28.20004       66.96831       13.311284      6.4119811      0              1.6007333      17.444271      998.84851    
    164600   239.606        40.900085      25.711919      66.612004      10.264396      11.877624      0              3.3609059      15.397158     -1499.8152    
    164700   224.73141      42.163514      24.115739      66.279253      11.921968      9.2871815      0              4.5372676      16.417097     -137.65562    
    164800   247.00131      39.509089      26.505503      66.014592      13.284811      5.9621932      0              3.2607202      17.001365      1688.9343    
    164900   273.15752      36.512319      29.312304      65.824624      8.0970081      7.307864       0              4.5989411      16.508506      3032.1645    
    165000   268.71996      36.96581       28.836114      65.801924      9.3250763      7.9747044      0              3.0497069      16.616322      655.62806    
    165100   201.25571      44.222288      21.596581      65.818869      12.895298      10.634585      0              4.529002       16.163403     -587.92662    
    165200   233.37363      40.818774      25.043128      65.861902      13.393623      8.4931969      0              2.8738531      16.058101     -45.726181    
    165300   259.66401      38.170541      27.864328      66.034868      11.86333       7.9874393      0              2.6291825      15.690589     -1807.2264    
    165400   272.93552      37.1789        29.288482      66.467381      9.5161491      8.0196025      0              2.8707692      16.772379      1085.3134    
    165500   246.87487      40.755538      26.491936      67.247474      11.480589      7.939361       0              4.1446858      17.190902      163.49683    
    165600   217.79871      45.016513      23.371797      68.38831       17.647173      10.28194       0              1.8544817      15.232919     -3224.9942    
    165700   234.89337      44.566144      25.206211      69.772354      13.598739      9.840435       0              4.4108005      16.716169      1060.2027    
    165800   289.59815      40.274287      31.076535      71.350822      13.927549      8.252112       0              3.2180296      14.876596     -4252.2699    
    165900   285.14537      42.379384      30.59871       72.978094      14.483967      8.7500427      0              3.4890538      15.65632      -1476.0794    
    166000   253.70354      47.07447       27.224714      74.299185      16.418683      11.402681      0              3.2555182      15.997588     -1989.3191    
    166100   299.04117      42.889741      32.089858      74.979599      12.884756      9.8283468      0              4.0041689      16.17247      -422.3667     
    166200   247.59479      48.51969       26.569189      75.088879      15.299821      11.431207      0              5.1931402      16.595521      2817.7745    
    166300   317.03398      40.430865      34.02065       74.451515      10.497378      10.239648      0              3.8128108      15.881028     -1551.6358    
    166400   270.60119      44.062154      29.037987      73.100141      10.263956      10.18115       0              7.4317138      16.185334      361.09357    
    166500   247.6249       44.489486      26.57242       71.061906      11.868134      12.996801      0              3.7361475      15.888403     -1230.7244    
    166600   272.90239      39.338392      29.284927      68.623319      10.54149       9.7450027      0              2.3799946      16.671905      4083.7292    
    166700   228.36664      41.851185      24.505833      66.357018      12.268741      8.4991243      0              4.3429388      16.740381      951.53812    
    166800   247.50283      37.953507      26.559322      64.512828      10.073076      6.1621757      0              4.7223181      16.995937     -731.21397    
    166900   244.57992      37.125715      26.245666      63.371381      7.9558796      8.5664642      0              3.8400753      16.763296     -516.11032    
    167000   222.91469      38.872682      23.920789      62.793471      8.766532       9.5776699      0              4.1743342      16.354146     -2140.5482    
    167100   234.84229      37.462471      25.200729      62.6632        8.7666401      6.0108789      0              4.6509883      18.033963      1736.9536    
    167200   202.75283      41.20553       21.757236      62.962766      12.167071      8.7081315      0              2.7644673      17.56586       1594.3472    
    167300   226.59083      39.210664      24.315272      63.525937      12.064623      7.112023       0              3.3999003      16.634117      184.10217    
    167400   252.67218      37.124068      27.11404       64.238108      11.600566      5.7223977      0              4.2895285      15.511577     -1049.1939    
    167500   270.50937      36.04831       29.028133      65.076444      10.066176      7.1495474      0              2.2884601      16.544127      1874.9538    
    167600   258.02116      38.200034      27.688034      65.888069      9.1784291      6.5725094      0              5.1708088      17.278287      2245.82      
    167700   211.20159      44.108649      22.663866      66.772515      15.382454      6.90456        0              6.208499       15.613136     -1858.5689    
    167800   251.14526      40.60637       26.950187      67.556557      11.021284      10.610978      0              3.5174414      15.456666     -1276.0165    
    167900   269.94266      39.344357      28.96732       68.311677      13.511351      7.6204996      0              2.210982       16.001524     -414.28721    
    168000   307.33706      35.936174      32.980083      68.916257      10.986458      4.264572       0              3.6802359      17.004909      137.53107    
    168100   236.22771      44.12178       25.349398      69.471178      16.679897      8.4521582      0              3.1108163      15.878909     -84.039613    
    168200   215.2066       46.707273      23.093639      69.800913      16.484913      9.9822025      0              5.1121979      15.127959     -213.83518    
    168300   261.48128      41.9258        28.059337      69.985136      14.078485      7.8850205      0              3.4762668      16.486027      828.08304    
    168400   238.35665      44.472295      25.577852      70.050147      13.234932      11.716886      0              2.9127581      16.607719     -2287.4516    
    168500   271.54997      40.892134      29.139799      70.031933      13.281222      7.909733       0              3.6081629      16.093017     -56.861714    
    168600   208.42857      47.645403      22.366295      70.011699      13.06316       13.685464      0              5.1445112      15.752268     -2163.4935    
    168700   231.2731       45.189373      24.817723      70.007096      12.123172      11.806444      0              4.627316       16.632441     -930.6981     
    168800   276.88564      40.251171      29.712366      69.963537      12.529311      7.6066578      0              2.7737565      17.341445     -463.88313    
    168900   192.42712      49.322013      20.649193      69.971205      16.186078      12.478161      0              5.3986726      15.259101     -2330.482     
    169000   255.74994      42.430793      27.444312      69.875105      12.133799      9.6036666      0              4.4010965      16.292231      1434.2216    
    169100   239.42357      44.114358      25.692342      69.8067        10.858029      10.532859      0              6.0971677      16.626302      1788.0404    
    169200   287.2212       38.842138      30.821466      69.663604      11.701175      6.7318853      0              4.2141406      16.194937     -277.37072    
    169300   275.79079      39.903935      29.594878      69.498813      9.0737566      10.162432      0              4.2618138      16.405932      3363.0851    
    169400   254.79814      42.015119      27.342175      69.357294      13.194996      7.4094589      0              5.0249716      16.385692     -919.78792    
    169500   290.73675      38.008304      31.198717      69.207021      13.590256      4.4341971      0              3.1092261      16.874624      621.87797    
    169600   257.81155      41.348778      27.665541      69.014319      10.706593      7.4663326      0              6.2760424      16.899809      229.55125    
    169700   291.20389      37.556134      31.248845      68.804979      11.55886       6.7617413      0              3.402895       15.832638      1524.4124    
    169800   286.59446      37.872383      30.754211      68.626594      8.6494336      8.2443785      0              5.3485151      15.630056     -1122.4184    
    169900   258.81126      40.680783      27.772819      68.453602      10.492975      8.8796026      0              4.2846431      17.023562      1374.679     
    170000   254.60484      40.905017      27.321431      68.226449      9.4791304      8.9150031      0              6.2701249      16.240759      1422.2646    
    170100   253.95687      40.652555      27.251899      67.904453      10.559656      9.576499       0              4.7108156      15.805584      1106.7321    
    170200   257.27033      39.857376      27.607463      67.46484       9.5785735      9.4657122      0              4.697409       16.115682      616.82347    
    170300   208.36748      44.439839      22.35974       66.799578      12.862803      8.1450129      0              5.2923573      18.139665      1593.7655    
    170400   222.94891      41.935485      23.92446       65.859945      11.96543       8.4212701      0              3.4707661      18.078019      3537.0989    
    170500   247.4208       38.178706      26.550518      64.729224      9.2072429      6.2267603      0              5.296541       17.448162     -22.413529    
    170600   245.63415      37.393846      26.358795      63.752641      10.463442      6.7371143      0              2.7750058      17.418284     -64.963357    
    170700   242.44949      36.920679      26.017052      62.937731      8.6086932      6.9273898      0              4.7062728      16.678323      661.73956    
    170800   234.24499      37.325591      25.136633      62.462224      11.073596      7.3677472      0              2.4245899      16.459658     -1876.3275    
    170900   207.10379      40.081291      22.224134      62.305425      9.9967312      8.6885938      0              5.6582782      15.737688     -1238.1337    
    171000   195.86508      41.594805      21.018118      62.612923      12.065157      9.3521156      0              4.3886141      15.788918      699.76908    
    171100   211.50437      40.692672      22.696357      63.389029      11.475579      8.7856103      0              4.3295085      16.101975      555.29362    
    171200   243.69221      38.590965      26.150407      64.741372      8.6994387      8.6225842      0              4.5174579      16.751485      443.93077    
    171300   228.02591      42.106023      24.46927       66.575293      11.573537      8.4897005      0              6.2615908      15.781195     -1510.4973    
    171400   283.12504      38.379728      30.38191       68.761638      9.9912041      7.1720645      0              5.3404522      15.876007     -1074.2374    
    171500   260.84366      42.908366      27.990915      70.899281      10.362198      7.7348215      0              7.2951539      17.516193      1841.7434    
    171600   263.78024      44.320995      28.306037      72.627031      14.824716      10.493682      0              2.5629528      16.439644     -981.56425    
    171700   261.16282      45.775825      28.025163      73.800988      12.537686      10.171767      0              7.2698293      15.796543     -2228.5152    
    171800   263.26951      46.273191      28.251231      74.524422      12.024807      11.545174      0              6.5836584      16.119551     -247.14894    
    171900   304.78265      42.028135      32.705971      74.734106      10.17494       8.8214654      0              5.7946316      17.237098      1709.5697    
    172000   277.88285      44.891485      29.819376      74.710861      14.889043      9.0311337      0              4.4316092      16.539698     -179.35012    
    172100   279.65794      44.268788      30.00986       74.278647      12.488369      10.544621      0              4.9355022      16.300296      749.30931    
    172200   258.7665       45.669048      27.768017      73.437065      16.203021      9.4634723      0              3.9065128      16.096042     -1817.559     
    172300   309.9366       38.949737      33.259036      72.208773      10.351101      7.2739448      0              4.1400847      17.184607      93.0536      
    172400   285.17623      39.97834       30.602022      70.580362      11.947479      7.4059941      0              3.4407299      17.184136      484.42299    
    172500   250.14323      41.938265      26.842661      68.780926      12.327205      8.7570318      0              3.9368778      16.917151     -144.55123    
    172600   213.34367      43.87267       22.893731      66.766401      14.131233      8.7904161      0              4.5824703      16.36855      -2720.2464    
    172700   230.25071      40.010998      24.70801       64.719008      9.7303613      9.0432297      0              4.64964        16.587767     -1278.8592    
    172800   198.71756      41.656919      21.324215      62.981134      10.714214      8.6990257      0              5.2853062      16.958374      2788.5639    
    172900   226.59645      37.137151      24.315876      61.453027      9.5252678      7.5660599      0              3.5866625      16.459161     -500.20711    
    173000   161.52819      43.083498      17.333455      60.416953      12.233829      11.46484       0              2.7147118      16.670117     -617.45921    
    173100   217.66549      36.352976      23.357501      59.710476      7.5339669      9.1312363      0              3.3759937      16.311779     -464.7229     
    173200   226.95516      35.07936       24.354368      59.433728      7.6868024      7.4495235      0              3.0530597      16.889975      1791.6348    
    173300   193.60215      38.995731      20.775285      59.771015      9.2846864      10.606428      0              2.9711385      16.133478     -759.93162    
    173400   183.69899      41.810445      19.712584      61.523029      10.987567      9.7720619      0              4.8749648      16.175851     -2442.9159    
    173500   239.94058      39.483518      25.747822      65.23134       11.219649      7.1279517      0              5.0074772      16.12844      -81.237924    
    173600   277.58953      39.34783       29.7879        69.13573       11.666843      7.9212294      0              3.2951725      16.464585     -978.39445    
    173700   260.08454      44.046005      27.909454      71.955458      14.071598      8.6665423      0              5.5867878      15.721076     -1080.7255    
    173800   269.43978      44.869308      28.913357      73.782665      15.960373      6.455775       0              6.8821336      15.571027     -2320.0286    
    173900   263.79598      46.62473       28.307726      74.932455      11.895963      12.116998      0              6.4827003      16.129068     -80.223094    
    174000   341.64444      38.874228      36.661579      75.535806      9.1452404      8.6529482      0              4.9580128      16.118026      272.95769    
    174100   296.86944      43.862245      31.856811      75.719055      13.478374      10.842276      0              3.7195753      15.82202      -1468.1099    
    174200   270.01911      46.660619      28.975524      75.636143      14.156035      12.714945      0              3.6510924      16.138546      1403.5838    
    174300   253.47552      48.030606      27.200246      75.230852      14.265931      12.205632      0              5.3861247      16.172918     -3384.1315    
    174400   262.98449      46.329413      28.220645      74.550058      10.615624      14.890057      0              4.3578324      16.4659        1477.9861    
    174500   255.70973      45.990268      27.439997      73.430265      11.028483      11.216727      0              7.4788292      16.266228     -839.0628     
    174600   259.32898      44.077542      27.828376      71.905917      10.153707      13.323746      0              4.5555318      16.044557      254.00292    
    174700   282.21542      39.94196       30.2843        70.22626       9.8013863      9.6492781      0              3.3643294      17.126966      999.54603    
    174800   295.7497       36.776137      31.736653      68.51279       10.324516      6.7313439      0              2.2763838      17.443893      114.4328     
    174900   228.45086      42.673284      24.514871      67.188155      12.858682      9.9240454      0              3.2741607      16.616396      2155.6927    
    175000   256.4765       38.540384      27.522278      66.062662      11.436989      6.8137129      0              3.9991809      16.290501     -586.5098     
    175100   230.50206      40.554162      24.734983      65.289146      9.8189321      9.5136304      0              3.3726818      17.848918      3165.1328    
    175200   254.83464      37.431685      27.346091      64.777776      7.8568539      8.7966048      0              4.4128656      16.365361     -1143.6511    
    175300   248.71772      37.8835        26.68969       64.57319       5.8997941      11.570507      0              4.1236196      16.28958       247.71573    
    175400   200.44274      43.211887      21.509343      64.72123       11.294975      11.790341      0              3.8954081      16.231164     -1009.2092    
    175500   236.71118      39.876167      25.401278      65.277445      10.802423      10.014116      0              2.0941776      16.96545      -314.37483    
    175600   214.38975      43.501093      23.005984      66.507078      13.272715      6.7212084      0              6.6972689      16.809901      957.73729    
    175700   250.31847      41.694028      26.861465      68.555493      12.159637      9.0878019      0              4.0651512      16.381438      522.73971    
    175800   287.42967      40.707714      30.843837      71.551551      12.17528       7.8557035      0              4.618355       16.058375     -553.0207     
    175900   299.7473       42.390503      32.165631      74.556134      9.8679322      11.546254      0              4.9214247      16.054892     -147.74522    
    176000   317.83492      42.780694      34.106599      76.887293      9.3258306      12.394405      0              3.6745374      17.385921      2173.6816    
    176100   291.85991      46.940797      31.319243      78.26004       13.770241      12.55734       0              4.8157548      15.797461     -967.92487    
    176200   299.55733      46.661187      32.145246      78.806433      14.300644      10.194007      0              5.7490463      16.41749      -790.50139    
    176300   274.62744      49.462844      29.470041      78.932884      17.202053      9.962173       0              5.8298836      16.468734      2156.3825    
    176400   273.31021      49.168698      29.32869       78.497388      17.831994      8.2517911      0              7.0367296      16.048183     -1903.5458    
    176500   321.9364       42.996534      34.546726      77.54326       10.308522      10.07675       0              6.2454135      16.365849      203.53809    
    176600   314.72263      42.370166      33.772622      76.142788      15.36399       6.1972288      0              6.1872962      14.621652     -3239.3927    
    176700   285.73732      43.764324      30.662233      74.426557      10.431958      9.6914595      0              7.9114085      15.729498     -2282.9974    
    176800   254.99607      45.41575       27.363414      72.779165      16.635718      8.1467889      0              4.5437053      16.089538      1384.5852    
    176900   244.69271      45.06325       26.25777       71.32102       12.194322      9.6850353      0              6.4952329      16.68866       598.31758    
    177000   271.6907       41.177228      29.154901      70.332129      10.495455      11.084692      0              3.9777542      15.619327     -1036.3317    
    177100   251.07603      42.766586      26.942759      69.709344      12.513399      11.726735      0              2.8904314      15.636021     -2339.5799    
    177200   280.22729      39.205282      30.070956      69.276238      12.543181      6.8416113      0              3.5155174      16.304973     -138.72998    
    177300   256.71714      41.435899      27.548101      68.984         13.023029      8.2122838      0              3.7318692      16.468717     -95.561025    
    177400   262.79745      40.536358      28.200574      68.736932      11.028624      8.8821378      0              4.3625983      16.262998     -338.3073     
    177500   268.02191      39.9089        28.761206      68.670106      8.2345045      9.7902459      0              5.3746331      16.509516      1225.1733    
    177600   233.57237      43.731625      25.064456      68.796081      11.338674      11.061465      0              4.167922       17.163565      314.45005    
    177700   241.14471      43.239453      25.877036      69.116489      13.018271      9.2398636      0              3.3154929      17.665825      2370.9375    
    177800   246.86812      43.1954        26.491212      69.686611      11.106255      9.3125268      0              5.7540663      17.022551      167.24964    
    177900   288.14692      39.416051      30.920804      70.336855      10.104893      10.242747      0              3.1634495      15.904961      690.72192    
    178000   270.62913      42.138703      29.040985      71.179688      13.406414      7.0474832      0              4.2424222      17.442383      1169.906     
    178100   258.46983      44.196072      27.736181      71.932253      14.749766      8.0768076      0              4.3941345      16.975365      1300.8696    
    178200   258.52549      45.095859      27.742153      72.838012      14.13634       8.6212956      0              6.7677809      15.570442      484.3574     
    178300   311.61916      40.565865      33.439591      74.005456      12.279847      8.6295489      0              3.6768913      15.979578     -1752.7512    
    178400   299.74815      43.768325      32.165722      75.934048      10.267744      13.172148      0              3.8541014      16.474333      491.72916    
    178500   357.2095       41.033319      38.331852      79.365171      13.598883      7.2443215      0              2.876862       17.313253      2078.9918    
    178600   275.14227      54.028038      29.525287      83.553325      16.397931      16.387008      0              4.8031228      16.439976      1.2448343    
    178700   396.30849      44.512556      42.527531      87.040087      14.482638      8.3551988      0              5.0873808      16.587338     -771.91709    
    178800   298.1676       56.751008      31.996116      88.747124      19.611233      14.277315      0              6.5156805      16.34678      -1113.1092    
    178900   352.23646      50.911149      37.798199      88.709348      15.629965      10.672065      0              6.3003575      18.308761      1959.1399    
    179000   346.44822      50.011275      37.177068      87.188344      16.557832      10.893323      0              6.6678981      15.892222     -3176.6268    
    179100   410.56386      40.553031      44.057264      84.610295      10.151693      8.0668344      0              5.6116942      16.72281      -187.11425    
    179200   384.21731      40.367074      41.230037      81.597111      11.526442      9.7692543      0              3.2226937      15.848683      583.89988    
    179300   317.19342      44.769906      34.03776       78.807666      13.08765       9.7479382      0              4.410906       17.523411      1204.286     
    179400   259.81057      48.876296      27.880054      76.75635       11.91934       12.971402      0              7.1546987      16.830856      2337.4359    
    179500   286.14964      44.596546      30.706478      75.303024      13.546597      9.4294696      0              5.045758       16.574721     -123.99352    
    179600   271.17871      45.146509      29.09996       74.246469      12.212224      9.72248        0              5.760882       17.450923      1027.6926    
    179700   278.24581      43.476693      29.858325      73.335018      13.251472      8.0719893      0              4.7845434      17.368689      1576.0465    
    179800   256.84729      44.902511      27.562067      72.464579      10.441107      12.61342       0              4.9825167      16.865467      123.57502    
    179900   323.90035      36.91581       34.757475      71.673286      9.3386119      8.1391446      0              2.8943456      16.543708      553.46109    
    180000   266.81618      42.27194       28.631821      70.903761      11.484822      10.25727       0              4.6046902      15.925158     -2049.3534    
    180100   225.46004      45.964469      24.193928      70.158397      13.485858      10.568125      0              5.8790776      16.031408     -1876.0924    
    180200   222.80211      45.678274      23.908707      69.586981      15.222349      9.7390173      0              4.8059192      15.910989     -598.92092    
    180300   252.58186      41.988427      27.104347      69.092774      12.570496      10.309639      0              3.6196559      15.488635     -2827.2729    
    180400   261.44909      40.756544      28.055883      68.812426      12.472232      8.2736313      0              3.7405737      16.270107     -1628.5064    
    180500   250.88547      41.856742      26.922309      68.779052      10.53369       10.056916      0              4.3176223      16.948514      118.20241    
    180600   224.17744      44.90379       24.056293      68.960083      11.062707      13.316457      0              4.5945057      15.93012      -1047.6467    
    180700   249.36581      42.629223      26.759236      69.388459      11.958847      10.750114      0              3.3882486      16.532014      1083.5382    
    180800   267.5956       41.472025      28.715459      70.187484      10.713096      8.6348221      0              4.8627611      17.261345      3157.1252    
    180900   236.414        46.219823      25.369389      71.589211      8.2910999      15.513292      0              5.2578126      17.157618      2024.9842    
    181000   234.81858      48.396687      25.198185      73.594872      13.164081      12.353057      0              5.9895001      16.890049      1314.0738    
    181100   306.34411      43.138483      32.87353       76.012012      12.868511      10.417911      0              3.5937655      16.258295      855.36768    
    181200   295.14071      46.685659      31.671303      78.356962      17.2324        9.6079946      0              4.1734917      15.671773     -2644.7614    
    181300   298.82753      48.065907      32.066932      80.132839      14.853917      11.660213      0              6.0470084      15.504768     -463.93371    
    181400   301.81635      48.895853      32.387659      81.283512      15.411553      12.180582      0              4.7375792      16.566139     -1089.3485    
    181500   282.12287      51.316         30.274369      81.590369      18.338835      10.821707      0              5.8163298      16.339128     -1116.0596    
    181600   270.0509       52.090847      28.978936      81.069782      16.279146      13.17739       0              5.4627844      17.171526     -685.56935    
    181700   244.61167      53.621703      26.249074      79.870777      17.154832      15.20575       0              4.8784512      16.38267      -2708.3604    
    181800   308.11498      44.920303      33.06356       77.983863      13.264786      10.510282      0              4.7977242      16.34751      -373.16731    
    181900   270.33457      46.323932      29.009376      75.333308      14.886063      11.804768      0              2.5505699      17.082531      695.73974    
    182000   298.28735      40.098219      32.008965      72.107184      15.68856       6.067307       0              3.7658345      14.576518     -3614.3144    
    182100   248.31377      42.774369      26.646343      69.420712      11.866029      9.6984672      0              5.2531427      15.956731      257.0049     
    182200   244.68841      41.537592      26.257308      67.7949        12.201804      8.1257239      0              5.3345783      15.875485      554.05518    
    182300   234.02363      41.968031      25.112879      67.080911      11.452127      9.691154       0              4.4343869      16.390363     -1379.0738    
    182400   261.28659      38.881275      28.038445      66.91972       11.378954      7.1090323      0              3.9936932      16.399596      596.10276    
    182500   242.97835      40.962729      26.073803      67.036532      10.958358      10.149943      0              3.3645156      16.489913      2713.1834    
    182600   261.17408      39.391077      28.026371      67.417449      13.809539      4.4653698      0              4.9945742      16.121595     -1783.7484    
    182700   261.28621      40.009887      28.038404      68.048291      11.887469      8.7756932      0              3.3507644      15.995961     -2148.6872    
    182800   291.56685      37.567755      31.287794      68.855549      9.9038137      6.8309506      0              3.772962       17.060029      561.11212    
    182900   242.74552      43.847142      26.048819      69.895961      13.479565      8.6809497      0              5.7641674      15.922459     -754.53464    
    183000   274.10656      41.611324      29.414145      71.025468      8.8267598      11.765205      0              4.5511713      16.468187     -118.50479    
    183100   300.02201      40.155099      32.195111      72.350209      9.8114935      9.2320572      0              4.323285       16.788263      832.18487    
    183200   321.69869      39.25869       34.521217      73.779907      11.631405      8.3326818      0              3.3522543      15.942349     -562.47576    
    183300   311.23444      41.878867      33.398306      75.277173      15.205776      8.1218271      0              2.8138938      15.73737      -2069.1868    
    183400   295.69418      44.844086      31.730695      76.574781      15.651487      9.260592       0              3.5332552      16.398753      206.90284    
    183500   319.97344      43.298533      34.336082      77.634615      11.944412      10.046742      0              4.3610245      16.946354      2456.7727    
    183600   326.57141      43.38671       35.044105      78.430815      14.337716      6.9605007      0              6.1030264      15.985467     -2720.8882    
    183700   276.46018      49.255498      29.66671       78.922208      13.050142      14.552807      0              5.4862521      16.166297     -1371.8026    
    183800   329.82986      43.641815      35.393766      79.035581      11.274357      10.16454       0              5.4806278      16.72229      -570.56702    
    183900   304.30393      46.071253      32.6546        78.725853      11.014799      10.875948      0              7.916335       16.264171     -1915.2403    
    184000   293.46495      46.013817      31.491478      77.505295      11.387055      11.64012       0              7.7596721      15.22697      -838.45183    
    184100   278.58508      45.165038      29.894732      75.059769      12.147795      11.230276      0              5.8782424      15.908725     -1097.247     
    184200   242.04346      45.950688      25.973481      71.924169      13.081757      9.0427024      0              7.6186672      16.207561     -376.97484    
    184300   246.09164      42.702917      26.407888      69.110805      11.594651      9.3431839      0              5.0761397      16.688943      2137.5335    
    184400   270.64913      37.953032      29.043131      66.996163      12.353548      8.1432824      0              2.2812402      15.174962     -1536.8953    
    184500   234.38355      40.49062       25.151502      65.642123      10.675814      9.3815429      0              4.6662764      15.766987      211.66158    
    184600   236.77131      39.584803      25.407731      64.992534      8.7578383      10.387182      0              4.1692176      16.270565      1929.2506    
    184700   236.27161      39.521817      25.354108      64.875925      9.9999172      7.1240194      0              5.5300285      16.867852     -413.8066     
    184800   248.09807      38.724392      26.623196      65.347587      9.2781891      9.1732671      0              3.2230272      17.049908      3128.873     
    184900   230.01378      41.641326      24.682586      66.323912      11.126142      10.61971       0              4.6786213      15.216853     -512.99065    
    185000   209.01049      45.403538      22.42874       67.832278      16.081374      7.8769635      0              5.9860769      15.459124     -231.42732    
    185100   241.85848      43.7581        25.95363       69.71173       12.938042      11.557935      0              3.5404931      15.721629      84.360204    
    185200   284.11772      41.317022      30.488435      71.805457      11.264309      10.76658       0              2.8550653      16.431068     -278.85466    
    185300   270.00539      44.946055      28.974052      73.920107      15.964472      8.4393936      0              4.3638567      16.178333     -1865.0286    
    185400   311.30284      42.339753      33.405647      75.7454        14.494081      8.0161387      0              2.9904519      16.839081      2784.8134    
    185500   278.65047      47.075605      29.901749      76.977354      12.173591      9.9601346      0              7.830711       17.111169     -1132.5693    
    185600   260.82414      49.618915      27.98882       77.607735      12.488945      10.650582      0              10.016943      16.462445     -1598.0621    
    185700   281.06472      47.683084      30.16082       77.843904      13.421638      8.7217202      0              8.261242       17.278484     -328.242      
    185800   317.31475      43.696497      34.05078       77.747277      13.635693      7.3592134      0              5.7209661      16.980624     -12.500656    
    185900   333.63274      41.390849      35.80185       77.192699      9.5111988      9.0174089      0              5.1544582      17.707783      1634.672     
    186000   310.15093      43.172458      33.282037      76.454495      8.697151       12.02218       0              5.0763822      17.376745      616.33015    
    186100   325.22249      40.651965      34.899353      75.551318      10.290536      10.262954      0              4.3003216      15.798154     -736.96241    
    186200   255.60153      47.140695      27.428386      74.569081      11.494942      14.859724      0              3.6176716      17.168358      758.97523    
    186300   268.94781      44.667479      28.860564      73.528044      14.735552      9.8137951      0              4.631932       15.4862       -2677.3451    
    186400   295.47726      40.790768      31.707417      72.498185      10.050865      8.6231567      0              4.9673885      17.149357      153.72217    
    186500   264.90867      43.177725      28.427128      71.604852      10.13495       10.394422      0              6.0615351      16.586818     -101.74046    
    186600   277.3509       41.142078      29.762293      70.904371      9.30085        9.8139667      0              5.0165352      17.010726      1481.8132    
    186700   273.12499      41.113668      29.308814      70.422482      13.247558      6.672747       0              4.7902344      16.403129     -1192.317     
    186800   264.41373      41.570321      28.374015      69.944336      11.331859      7.9565935      0              5.5943052      16.687563     -572.33279    
    186900   271.22124      40.323099      29.104524      69.427623      10.921525      10.040246      0              3.9562768      15.405052      340.86205    
    187000   251.79473      41.589379      27.019881      68.60926       15.245035      7.4573834      0              3.5001903      15.38677       377.62114    
    187100   255.285        39.94575       27.394419      67.340169      10.221029      9.7043414      0              3.6928779      16.327502      2433.2497    
    187200   252.48061      38.712289      27.093482      65.805772      10.045994      8.5441415      0              3.9447775      16.177376     -686.66832    
    187300   245.344        38.070771      26.327659      64.398431      8.774588       8.3045536      0              5.6160343      15.375595      180.26975    
    187400   246.47592      36.948464      26.449124      63.397588      10.46951       7.1589103      0              4.0357413      15.284303     -1472.4591    
    187500   208.92758      40.50415       22.419844      62.923993      13.655488      6.3987988      0              4.427026       16.022837      707.3501     
    187600   209.23819      40.492244      22.453175      62.945419      10.173673      8.8553356      0              4.5763092      16.886926     -2565.3779    
    187700   190.98637      43.09205       20.494587      63.586636      11.344204      9.8805907      0              4.8732665      16.993989     -610.01843    
    187800   240.00602      39.126626      25.754845      64.881471      8.9694781      10.195858      0              3.5196167      16.441673     -1328.1632    
    187900   232.72317      41.968496      24.973329      66.941825      12.596959      9.9937926      0              3.3565408      16.021204      271.763      
    188000   263.10471      41.202216      28.233546      69.435762      12.160643      7.8677752      0              3.9261611      17.247637      1442.3287    
    188100   281.32591      41.656454      30.188848      71.845302      9.1486098      10.692383      0              4.3083534      17.507107      2233.5842    
    188200   310.66975      40.642827      33.33771       73.980537      9.8323101      9.4590904      0              5.1585138      16.192912     -251.67586    
    188300   306.64105      42.695277      32.905394      75.60067       16.671292      8.2656046      0              2.4969262      15.261454     -704.0377     
    188400   275.92156      47.232578      29.608912      76.841489      13.416505      13.967646      0              3.3112262      16.5372        263.80398    
    188500   331.33976      41.992604      35.555791      77.548396      10.411167      12.645324      0              1.8325764      17.103538     -1764.5941    
    188600   328.03754      42.793589      35.201434      77.995023      12.273438      9.9686656      0              4.3547166      16.196769      338.79585    
    188700   247.09403      51.563279      26.515453      78.078732      13.415024      17.634658      0              3.5025067      17.011091      3062.6887    
    188800   257.79948      50.203969      27.664246      77.868215      17.988123      10.93319       0              3.6778891      17.604768     -413.39466    
    188900   290.09987      46.26114       31.130374      77.391513      14.404085      10.387627      0              3.7732101      17.696218      2800.1094    
    189000   306.30861      43.609467      32.86972       76.479187      9.0569696      14.554278      0              3.7090695      16.28915       769.98304    
    189100   323.94354      40.496549      34.76211       75.258659      11.51827       10.131735      0              2.6721309      16.174413      578.32043    
    189200   276.15577      44.042201      29.634044      73.676245      14.974581      9.5127438      0              2.3104915      17.244385     -1079.5265    
    189300   258.98678      43.818407      27.791654      71.610061      9.2226387      12.058207      0              6.0344891      16.503072     -1100.4333    
    189400   251.2126       42.480532      26.957414      69.437946      8.9726303      14.155237      0              3.8505116      15.502154      344.41619    
    189500   265.07133      39.085877      28.444583      67.53046       9.4260585      9.5216612      0              3.7355222      16.402635     -1556.1839    
    189600   194.63416      45.096684      20.886028      65.982712      12.359917      9.3645226      0              4.7314269      18.640817      2458.6283    
    189700   221.56322      41.261964      23.775763      65.037727      12.608089      6.9656096      0              3.3761668      18.312099      2789.9329    
    189800   240.72567      38.785431      25.83207       64.617501      8.9025984      10.144544      0              3.8275432      15.910745     -809.44364    
    189900   261.19033      36.735318      28.028115      64.763433      8.8623638      6.8275613      0              4.7262902      16.319102      1795.228     
    190000   236.47249      40.225983      25.375665      65.601648      10.502907      8.5837841      0              4.0549729      17.084319      18.957982    
    190100   205.31796      45.467227      22.032498      67.499725      15.832243      9.601623       0              3.2469081      16.786453     -2268.6637    
    190200   259.06115      43.232693      27.799635      71.032328      11.407507      10.310648      0              6.3070966      15.207441     -2982.1539    
    190300   288.22967      44.353728      30.929684      75.283412      10.066941      13.829845      0              4.2753646      16.181578      1337.047     
    190400   280.34514      48.243633      30.083602      78.327235      13.043578      14.957841      0              3.4679149      16.7743       -1906.0458    
    190500   319.95777      45.384149      34.3344        79.718549      12.975829      11.605028      0              3.2031688      17.600123      1337.3269    
    190600   320.13625      45.971271      34.353553      80.324824      12.2947        12.887759      0              4.3156762      16.473136      1038.484     
    190700   304.65733      47.864816      32.692523      80.557339      14.330622      13.392792      0              3.8861579      16.255244     -3270.4718    
    190800   290.01303      49.381708      31.121055      80.502763      15.737574      11.643775      0              3.8857436      18.114615      4487.2212    
    190900   292.03392      48.860143      31.337915      80.198058      14.696251      12.963013      0              3.3131045      17.887774     -855.65183    
    191000   324.08269      44.761034      34.777042      79.538076      12.178547      12.19903       0              3.1866653      17.196792      1159.7825    
    191100   349.67285      41.106839      37.5231        78.629939      9.7584314      8.8410691      0              5.4143008      17.093038      2515.5127    
    191200   324.85051      42.634032      34.859436      77.493468      12.340146      9.404621       0              3.4151404      17.474124      24.985674    
    191300   286.61791      45.275489      30.756728      76.032217      15.84942       9.672087       0              2.6807733      17.073209      1196.0794    
    191400   286.6171       43.569121      30.756641      74.325763      12.879116      11.012344      0              4.1124384      15.565223     -1414.0767    
    191500   241.83837      46.836335      25.951473      72.787808      14.568948      9.472702       0              5.395249       17.399436      1115.9709    
    191600   247.73667      44.873385      26.584415      71.4578        10.68589       13.177598      0              3.4556351      17.554262      1283.4925    
    191700   255.20402      42.991851      27.38573       70.37758       10.156501      10.471064      0              5.1018757      17.262409      1730.6655    
    191800   240.10417      43.77684       25.765378      69.542217      17.40648       7.7700053      0              2.4935022      16.106852      147.90357    
    191900   288.78928      37.842714      30.989736      68.83245       11.12424       7.1156087      0              3.7447772      15.858088      2218.9396    
    192000   238.03514      42.87078       25.543351      68.414131      11.339261      10.543609      0              4.047905       16.940004      15.848152    
    192100   260.99429      40.264803      28.007079      68.271882      11.201111      6.9193813      0              5.1540916      16.990219     -550.19964    
    192200   245.3082       42.213823      26.323817      68.537641      13.44381       8.8211836      0              2.8469297      17.1019        1089.0247    
    192300   263.32247      41.226604      28.256914      69.483518      14.046102      7.7339606      0              2.3035424      17.142999      1109.1847    
    192400   302.27118      38.963155      32.436467      71.399622      8.5019646      10.157081      0              2.7307603      17.573349      3580.9406    
    192500   310.35502      40.922868      33.303937      74.226805      11.259915      10.085937      0              2.3937283      17.183288     -252.30514    
    192600   331.91391      41.882672      35.617404      77.500076      16.870078      6.6860416      0              2.0397623      16.28679       950.48516    
    192700   316.56352      46.282657      33.970166      80.252823      14.89388       8.8640942      0              6.0912414      16.433441     -442.14873    
    192800   310.13577      48.813239      33.28041       82.093648      15.754679      8.8720441      0              8.9923898      15.194126      508.30778    
    192900   358.1433       44.443291      38.432057      82.875348      13.939455      11.9791        0              3.8978105      14.626925     -3612.0665    
    193000   317.21621      48.915495      34.040206      82.955701      21.24627       7.7440943      0              5.0585963      14.866534     -4003.3148    
    193100   303.59759      49.781104      32.578803      82.359907      16.120098      13.818359      0              5.090918       14.751729     -3377.1525    
    193200   332.14171      45.547756      35.641849      81.189604      11.722981      14.197526      0              4.7994255      14.827823     -4008.6757    
    193300   336.78843      43.402865      36.140485      79.54335       12.648211      12.661927      0              2.9408812      15.151846     -3328.8792    
    193400   315.10448      43.739834      33.813598      77.553432      11.337453      13.882688      0              2.6729095      15.846783     -3593.8079    
    193500   259.86883      47.697937      27.886306      75.584243      14.20019       10.740887      0              6.8154528      15.941407     -2262.2457    
    193600   306.59903      40.761098      32.900885      73.661984      9.7104083      9.8347731      0              4.225658       16.990259     -1546.7403    
    193700   256.92979      44.596547      27.57092       72.167467      10.659379      12.265935      0              5.3774577      16.293776     -844.39109    
    193800   229.02933      46.611205      24.576946      71.18815       15.989956      10.024289      0              4.6543007      15.942659     -562.04813    
    193900   251.51125      43.599405      26.989461      70.588866      9.124929       10.79619       0              6.5291728      17.149113      2996.097     
    194000   221.24265      46.635627      23.741364      70.376991      11.808973      12.213732      0              6.3518975      16.261024      494.21473    
    194100   287.86098      39.538067      30.89012       70.428187      6.9737337      11.593338      0              5.1597804      15.811214      1050.0212    
    194200   281.92988      40.502143      30.253659      70.755802      13.374911      8.7689265      0              3.0196549      15.33865       385.06243    
    194300   289.7315       40.1858        31.090845      71.276645      11.617148      8.1092698      0              3.6381637      16.821218      164.3896     
    194400   284.1514       41.469419      30.492049      71.961468      12.233956      9.4087822      0              3.1751285      16.651552     -283.94187    
    194500   266.79952      44.230614      28.630032      72.860646      13.802478      10.416974      0              3.6852938      16.325868     -578.13346    
    194600   343.60177      36.959088      36.871618      73.830706      11.231836      7.3448346      0              2.2469355      16.135482     -1527.0531    
    194700   320.87754      40.425361      34.4331        74.85846       13.004235      9.4056748      0              2.4204658      15.594985     -960.23363    
    194800   292.17965      44.19746       31.353554      75.551014      11.593614      11.107273      0              6.0278396      15.468733      219.92276    
    194900   306.98485      42.962727      32.942287      75.905014      9.8756813      10.878103      0              6.3744883      15.834454      45.050639    
    195000   292.27649      44.857101      31.363945      76.221046      11.350139      12.431483      0              3.510547       17.564933     -532.59042    
    195100   296.17872      44.531139      31.78269       76.313828      14.087242      11.375122      0              1.9698868      17.098888      2725.035     
    195200   277.45067      46.579879      29.772999      76.352878      16.282756      8.7522189      0              5.4789296      16.065975      1346.0455    
    195300   292.72208      44.831109      31.411761      76.24287       12.189832      11.946265      0              5.1186403      15.576371     -1324.8889    
    195400   301.68434      43.663671      32.373493      76.037164      8.9885146      12.652815      0              5.6080509      16.41429      -309.20974    
    195500   300.79919      43.486586      32.278509      75.765096      11.852575      11.025922      0              3.3340266      17.274063     -551.63921    
    195600   247.86836      48.825322      26.598545      75.423867      18.26324       9.7349513      0              4.8878456      15.939285     -2095.0946    
    195700   259.07931      47.344923      27.801583      75.146506      14.095144      13.492446      0              3.2779603      16.479373      218.09788    
    195800   291.8842       43.470025      31.321849      74.791874      11.924779      11.319884      0              3.6339913      16.591371     -3319.1424    
    195900   298.58785      42.472         32.041212      74.513212      12.049333      7.3735955      0              5.6430031      17.406068      735.26408    
    196000   284.85792      43.767243      30.567865      74.335108      13.274657      8.8626102      0              4.7893977      16.840579     -1185.1502    
    196100   288.76557      43.302002      30.987191      74.289193      11.613952      11.646601      0              2.6290342      17.412415     -1358.1344    
    196200   298.5281       42.435863      32.0348        74.470662      10.382518      8.4258198      0              4.7230063      18.904519      382.15662    
    196300   259.07169      47.279706      27.800766      75.080472      10.86911       12.495767      0              5.538247       18.376582      2624.5722    
    196400   268.13706      47.21533       28.773563      75.988893      14.681788      11.742457      0              2.2604371      18.530648      3169.8615    
    196500   282.34872      46.949541      30.298604      77.248145      14.466659      9.4769446      0              5.0275417      17.978395      2001.6348    
    196600   325.49919      44.013793      34.929045      78.942838      13.634754      9.8842091      0              3.9727542      16.522076     -334.68288    
    196700   334.72913      44.963529      35.919503      80.883032      13.472585      9.7559825      0              5.3396959      16.395266     -654.53885    
    196800   295.4971       51.302551      31.709546      83.012097      16.148715      11.132759      0              7.3647178      16.656359      1479.4715    
    196900   313.75895      51.165807      33.66921       84.835017      18.368314      9.6595514      0              6.979533       16.158408     -4320.8814    
    197000   373.07188      45.852456      40.034031      85.886487      18.305024      8.6593542      0              2.7294543      16.158624     -2294.1354    
    197100   376.81159      45.750322      40.435336      86.185658      11.122058      13.338314      0              4.7000562      16.589893     -761.40219    
    197200   359.56573      47.147931      38.584697      85.732628      12.287562      12.434838      0              4.8599056      17.565626      442.41745    
    197300   349.57541      46.974511      37.512644      84.487156      11.777176      14.328459      0              3.9327839      16.936092      1602.977     
    197400   334.40169      46.163643      35.884365      82.048008      12.351033      12.801713      0              4.2839575      16.726939      24.374158    
    197500   280.97254      48.330388      30.150927      78.481316      12.400724      15.359544      0              4.6752972      15.894823     -730.44055    
    197600   245.229        48.511874      26.315319      74.827193      15.576177      13.290465      0              3.1029891      16.542244     -699.67641    
    197700   295.86209      40.375494      31.748713      72.124207      10.690545      10.722026      0              2.7368619      16.226061      866.52051    
    197800   212.20956      47.909607      22.77203       70.681637      13.104798      10.154686      0              7.9136924      16.736431      1370.2326    
    197900   261.14951      42.020844      28.023735      70.044579      12.031083      10.353657      0              3.9023736      15.733731     -7.3557565    
    198000   252.25597      42.818958      27.069376      69.888334      14.377978      8.6777825      0              3.9341034      15.829094      646.65549    
    198100   258.45562      42.283339      27.734656      70.017996      10.858897      11.316481      0              5.0621454      15.045815     -528.82826    
    198200   300.80075      38.135464      32.278676      70.414141      9.2661834      8.647107       0              4.7388371      15.483337     -843.20635    
    198300   286.62485      40.357461      30.757472      71.114933      9.7528314      9.4432365      0              5.2739682      15.887425     -1777.6525    
    198400   232.11708      47.219947      24.908289      72.128236      13.641755      8.0895661      0              9.1845194      16.304106     -406.94688    
    198500   308.30303      40.38372       33.08374       73.46746       9.1775123      8.9017467      0              5.5930652      16.711396     -1716.4739    
    198600   305.37263      42.456794      32.769281      75.226074      16.631514      5.5709783      0              4.0906403      16.163661     -2555.8657    
    198700   350.42665      39.430551      37.60399       77.034541      9.7779669      9.1463224      0              3.6750067      16.831255     -967.60729    
    198800   312.54156      45.350341      33.538572      78.888913      10.41654       9.7145409      0              7.9695075      17.249752      650.05288    
    198900   304.11193      47.886109      32.633996      80.520105      13.571966      13.806701      0              3.454076       17.053365      832.98624    
    199000   328.57621      46.531082      35.259237      81.790319      14.807106      11.366896      0              4.4270454      15.930035     -751.208      
    199100   350.09475      45.099799      37.568374      82.668173      13.352332      8.0430587      0              8.6691341      15.035274      1354.3471    
    199200   323.53168      48.272711      34.717913      82.990624      15.859842      13.166824      0              3.1908359      16.055209      3041.919     
    199300   299.80799      50.591851      32.172144      82.763995      15.40571       10.220594      0              7.8447777      17.120769     -85.739521    
    199400   329.33175      46.923428      35.340314      82.263742      12.283632      9.7099823      0              8.2008431      16.72897       1679.652     
    199500   281.75477      51.23826       30.234868      81.473128      13.492877      16.530095      0              5.2207645      15.994523      378.1007     
    199600   339.4815       43.773804      36.429475      80.203279      14.917404      7.7014969      0              4.9918455      16.163058      168.83506    
    199700   276.31477      48.920768      29.651106      78.571874      15.705103      10.022133      0              5.4961035      17.697429      1421.1816    
    199800   296.9805       44.566384      31.868729      76.435112      10.828354      10.451459      0              7.0852781      16.201292     -697.04803    
    199900   289.98817      41.882041      31.118387      73.000429      10.426946      10.568411      0              4.4791021      16.407582      776.31223    
    200000   218.1042       44.947283      23.404579      68.351861      9.6293468      16.093908      0              4.319083       14.904945     -2046.0055    
Loop time of 6.04829 on 1 procs for 200000 steps with 37 atoms

Performance: 714.252 ns/day, 0.034 hours/ns, 33067.205 timesteps/s, 1.223 Matom-step/s
96.7% CPU use with 1 MPI tasks x no OpenMP threads

MPI task timing breakdown:
Section |  min time  |  avg time  |  max time  |%varavg| %total
---------------------------------------------------------------
Pair    | 2.7516     | 2.7516     | 2.7516     |   0.0 | 45.49
Bond    | 1.5993     | 1.5993     | 1.5993     |   0.0 | 26.44
Neigh   | 0.1254     | 0.1254     | 0.1254     |   0.0 |  2.07
Comm    | 0.88251    | 0.88251    | 0.88251    |   0.0 | 14.59
Output  | 0.17266    | 0.17266    | 0.17266    |   0.0 |  2.85
Modify  | 0.29221    | 0.29221    | 0.29221    |   0.0 |  4.83
Other   |            | 0.2247     |            |       |  3.71

Nlocal:             37 ave          37 max          37 min
Histogram: 1 0 0 0 0 0 0 0 0 0
Nghost:            962 ave         962 max         962 min
Histogram: 1 0 0 0 0 0 0 0 0 0
Neighs:            968 ave         968 max         968 min
Histogram: 1 0 0 0 0 0 0 0 0 0

Total # of neighbors = 968
Ave neighs/atom = 26.162162
Ave special neighs/atom = 10
Neighbor list builds = 635
Dangerous builds = 0
System init for write_data ...
Generated 6 of 6 mixed pair_coeff terms from geometric mixing rule
Total wall time: 0:00:06

