# Phase 0 Day 005 — carbon-like neutral scaffold-water contained extension
# Purpose:
#   Extend the matched carbon-like neutral scaffold-water control from 10,000 to 20,000 steps
#   for matched-time comparison against BN-like scaffold-water and water-only controls.

units           real
atom_style      full
boundary        f f f

pair_style      lj/cut/coul/cut 10.0
bond_style      harmonic
angle_style     harmonic

read_data       ../../../systems/inorganic/carbon_like_scaffold_water/outputs/carbon_like_scaffold_water_30000w_nvt300_contained.data nocoeff

group           scaffold type 1
group           water type 3 4
group           oxygen type 3
group           hydrogen type 4

mass            1 12.011
mass            2 12.011
mass            3 15.9994
mass            4 1.008

# Carbon-like neutral scaffold + water placeholder force field.
pair_coeff      1 1 0.0700 3.40
pair_coeff      2 2 0.0700 3.40
pair_coeff      3 3 0.1521 3.1507
pair_coeff      4 4 0.0000 0.0000
pair_coeff      1 2 0.0700 3.40
pair_coeff      1 3 0.0800 3.275
pair_coeff      1 4 0.0000 0.0000
pair_coeff      2 3 0.0800 3.275
pair_coeff      2 4 0.0000 0.0000
pair_coeff      3 4 0.0000 0.0000

bond_coeff      1 450.0 0.9572
angle_coeff     1 55.0 104.52

special_bonds   lj/coul 0.0 0.0 0.0

neighbor        2.0 bin
neigh_modify    every 1 delay 0 check yes one 4000 page 400000

timestep        0.10

velocity        scaffold set 0.0 0.0 0.0
fix             freeze_scaffold scaffold setforce 0.0 0.0 0.0

fix             walls all wall/reflect xlo -140.0 xhi 140.0 ylo -140.0 yhi 140.0 zlo -120.0 zhi 120.0
fix             shake_water water shake 1.0e-5 100 0 b 1 a 1

compute         twater water temp
compute         msdwater oxygen msd com yes

fix             nvt_water water nvt temp 300.0 300.0 10.0
fix_modify      nvt_water temp twater

thermo          500
thermo_style    custom step atoms temp c_twater pe ke etotal press c_msdwater[4]

dump            traj all custom 1000 ../../../systems/inorganic/carbon_like_scaffold_water/outputs/nvt300_contained_carbon_like_extend_to_20k_30000w.lammpstrj id mol type q x y z ix iy iz
dump_modify     traj sort id

run             10000

write_data      ../../../systems/inorganic/carbon_like_scaffold_water/outputs/carbon_like_scaffold_water_30000w_nvt300_contained_20k.data
