! PBE0 def2-SVP TightSCF SlowConv

%tddft
  nroots 20
end

%scf
  MaxIter 500
  ConvForced true
end

* xyz 0 1
C     40.470000    53.110000    43.310000
C     39.800000    53.160000    44.540000
C     38.400000    53.310000    44.580000
C     37.730000    53.370000    45.810000
C     36.330000    53.510000    45.850000
C     35.590000    53.600000    44.650000
C     34.190000    53.750000    44.680000
C     33.470000    53.840000    43.480000
C     34.140000    53.780000    42.240000
C     35.540000    53.640000    42.200000
C     36.220000    53.580000    40.970000
C     37.610000    53.430000    40.940000
C     38.350000    53.340000    42.140000
C     39.740000    53.200000    42.110000
C     37.670000    53.400000    43.380000
C     36.270000    53.550000    43.410000
H     41.550000    52.990000    43.280000
H     40.370000    53.090000    45.470000
H     38.280000    53.290000    46.750000
H     35.810000    53.540000    46.810000
H     33.670000    53.790000    45.630000
H     32.390000    53.940000    43.500000
H     33.570000    53.850000    41.320000
H     35.660000    53.650000    40.040000
H     38.120000    53.400000    39.980000
H     40.270000    53.150000    41.160000
C     33.470000    19.620000    70.080000
C     34.140000    19.560000    71.320000
C     35.540000    19.420000    71.360000
C     36.210000    19.360000    72.590000
C     37.610000    19.220000    72.630000
C     38.340000    19.140000    71.430000
C     39.750000    19.010000    71.460000
C     40.470000    18.950000    70.260000
C     39.810000    19.010000    69.030000
C     38.410000    19.130000    68.980000
C     37.730000    19.190000    67.750000
C     36.330000    19.320000    67.710000
C     35.600000    19.400000    68.910000
C     34.200000    19.540000    68.880000
C     36.270000    19.340000    70.150000
C     37.670000    19.200000    70.190000
H     32.390000    19.720000    70.060000
H     33.570000    19.620000    72.240000
H     35.650000    19.420000    73.520000
H     38.120000    19.170000    73.580000
H     40.270000    18.970000    72.410000
H     41.560000    18.860000    70.290000
H     40.380000    18.980000    68.100000
H     38.290000    19.150000    66.820000
H     35.820000    19.370000    66.760000
H     33.670000    19.590000    67.930000
*
