! wB97X-D3 def2-SVP def2/J RIJCOSX TightSCF
%maxcore 4096
%tddft
  nroots 10
  tda true
end
%pointcharges "frame008_PYR5_embedding.pc"
* xyz 0 1
C       33.320000      19.670000      70.090000
C       34.020000      19.600000      71.320000
C       35.470000      19.440000      71.360000
C       36.190000      19.380000      72.580000
C       37.630000      19.240000      72.620000
C       38.410000      19.150000      71.430000
C       39.860000      19.020000      71.460000
C       40.620000      18.940000      70.260000
C       39.920000      18.990000      69.030000
C       38.470000      19.130000      68.990000
C       37.750000      19.180000      67.770000
C       36.310000      19.320000      67.730000
C       35.530000      19.410000      68.920000
C       34.080000      19.570000      68.890000
C       36.240000      19.350000      70.160000
C       37.700000      19.210000      70.190000
H       32.240000      19.780000      70.060000
H       33.420000      19.670000      72.220000
H       35.620000      19.440000      73.510000
H       38.150000      19.190000      73.570000
H       40.410000      18.980000      72.390000
H       41.700000      18.850000      70.290000
H       40.520000      18.940000      68.130000
H       38.310000      19.120000      66.840000
H       35.790000      19.370000      66.780000
H       33.520000      19.620000      67.960000
*
