! PBE0 def2-SVP TightSCF SlowConv

%tddft
  nroots 20
end

%scf
  MaxIter 500
  ConvForced true
end

* xyz 0 1
C     53.110000    33.470000    29.910000
C     53.170000    34.140000    31.140000
C     53.320000    35.540000    31.180000
C     53.370000    36.210000    32.410000
C     53.520000    37.610000    32.450000
C     53.620000    38.340000    31.250000
C     53.750000    39.740000    31.280000
C     53.840000    40.470000    30.080000
C     53.790000    39.800000    28.850000
C     53.650000    38.400000    28.810000
C     53.590000    37.730000    27.570000
C     53.440000    36.330000    27.540000
C     53.360000    35.590000    28.740000
C     53.200000    34.200000    28.710000
C     53.420000    36.270000    29.980000
C     53.570000    37.670000    30.010000
H     52.970000    32.390000    29.880000
H     53.090000    33.580000    32.070000
H     53.290000    35.660000    33.350000
H     53.560000    38.120000    33.410000
H     53.780000    40.260000    32.230000
H     53.930000    41.550000    30.110000
H     53.850000    40.370000    27.920000
H     53.640000    38.290000    26.640000
H     53.380000    35.820000    26.580000
H     53.140000    33.670000    27.760000
C     20.840000    40.470000    56.700000
C     20.780000    39.800000    57.930000
C     20.630000    38.400000    57.970000
C     20.570000    37.730000    59.210000
C     20.420000    36.330000    59.240000
C     20.330000    35.600000    58.040000
C     20.190000    34.200000    58.070000
C     20.100000    33.470000    56.870000
C     20.160000    34.140000    55.640000
C     20.300000    35.540000    55.600000
C     20.370000    36.210000    54.360000
C     20.520000    37.610000    54.330000
C     20.600000    38.340000    55.530000
C     20.750000    39.740000    55.500000
C     20.540000    37.670000    56.770000
C     20.390000    36.270000    56.800000
H     20.950000    41.550000    56.670000
H     20.840000    40.370000    58.860000
H     20.630000    38.280000    60.140000
H     20.380000    35.820000    60.200000
H     20.150000    33.670000    59.020000
H     19.990000    32.390000    56.900000
H     20.100000    33.570000    54.710000
H     20.310000    35.660000    53.430000
H     20.570000    38.120000    53.370000
H     20.800000    40.270000    54.550000
*
