! PBE0 def2-SVP TightSCF SlowConv

%tddft
  nroots 10
end

%scf
  MaxIter 500
  ConvForced true
end

* xyz 0 1
C     33.470000    19.620000    70.080000
C     34.140000    19.560000    71.320000
C     35.540000    19.420000    71.360000
C     36.210000    19.360000    72.590000
C     37.610000    19.220000    72.630000
C     38.340000    19.140000    71.430000
C     39.750000    19.010000    71.460000
C     40.470000    18.950000    70.260000
C     39.810000    19.010000    69.030000
C     38.410000    19.130000    68.980000
C     37.730000    19.190000    67.750000
C     36.330000    19.320000    67.710000
C     35.600000    19.400000    68.910000
C     34.200000    19.540000    68.880000
C     36.270000    19.340000    70.150000
C     37.670000    19.200000    70.190000
H     32.390000    19.720000    70.060000
H     33.570000    19.620000    72.240000
H     35.650000    19.420000    73.520000
H     38.120000    19.170000    73.580000
H     40.270000    18.970000    72.410000
H     41.560000    18.860000    70.290000
H     40.380000    18.980000    68.100000
H     38.290000    19.150000    66.820000
H     35.820000    19.370000    66.760000
H     33.670000    19.590000    67.930000
*
