! PBE0 def2-SVP TightSCF SlowConv

%tddft
  nroots 20
end

%scf
  MaxIter 500
  ConvForced true
end

* xyz 0 1
C     53.110000    33.470000    29.910000
C     53.170000    34.140000    31.140000
C     53.320000    35.540000    31.180000
C     53.370000    36.210000    32.410000
C     53.520000    37.610000    32.450000
C     53.620000    38.340000    31.250000
C     53.750000    39.740000    31.280000
C     53.840000    40.470000    30.080000
C     53.790000    39.800000    28.850000
C     53.650000    38.400000    28.810000
C     53.590000    37.730000    27.570000
C     53.440000    36.330000    27.540000
C     53.360000    35.590000    28.740000
C     53.200000    34.200000    28.710000
C     53.420000    36.270000    29.980000
C     53.570000    37.670000    30.010000
H     52.970000    32.390000    29.880000
H     53.090000    33.580000    32.070000
H     53.290000    35.660000    33.350000
H     53.560000    38.120000    33.410000
H     53.780000    40.260000    32.230000
H     53.930000    41.550000    30.110000
H     53.850000    40.370000    27.920000
H     53.640000    38.290000    26.640000
H     53.380000    35.820000    26.580000
H     53.140000    33.670000    27.760000
C     40.470000    53.110000    43.310000
C     39.800000    53.160000    44.540000
C     38.400000    53.310000    44.580000
C     37.730000    53.370000    45.810000
C     36.330000    53.510000    45.850000
C     35.590000    53.600000    44.650000
C     34.190000    53.750000    44.680000
C     33.470000    53.840000    43.480000
C     34.140000    53.780000    42.240000
C     35.540000    53.640000    42.200000
C     36.220000    53.580000    40.970000
C     37.610000    53.430000    40.940000
C     38.350000    53.340000    42.140000
C     39.740000    53.200000    42.110000
C     37.670000    53.400000    43.380000
C     36.270000    53.550000    43.410000
H     41.550000    52.990000    43.280000
H     40.370000    53.090000    45.470000
H     38.280000    53.290000    46.750000
H     35.810000    53.540000    46.810000
H     33.670000    53.790000    45.630000
H     32.390000    53.940000    43.500000
H     33.570000    53.850000    41.320000
H     35.660000    53.650000    40.040000
H     38.120000    53.400000    39.980000
H     40.270000    53.150000    41.160000
O     29.850000    51.700000    40.110000
H     29.500000    52.420000    40.630000
H     29.740000    50.930000    40.660000
O     31.820000    54.540000    38.480000
H     31.330000    53.740000    38.260000
H     31.450000    54.810000    39.320000
O     28.140000    51.480000    43.120000
H     28.320000    52.290000    42.650000
H     28.030000    51.750000    44.040000
O     28.740000    53.810000    41.580000
H     29.470000    54.390000    41.370000
H     28.110000    53.950000    40.880000
O     36.180000    58.160000    43.990000
H     35.880000    57.600000    44.700000
H     35.380000    58.460000    43.560000
O     29.770000    56.420000    47.200000
H     29.440000    57.200000    46.750000
H     30.700000    56.410000    47.000000
O     36.760000    58.200000    47.620000
H     36.250000    59.010000    47.690000
H     37.670000    58.480000    47.640000
O     29.700000    57.750000    43.800000
H     29.450000    58.280000    43.050000
H     29.200000    58.100000    44.530000
O     30.680000    55.550000    40.770000
H     31.460000    55.870000    41.240000
H     30.310000    56.330000    40.360000
O     32.590000    56.660000    46.980000
H     32.660000    56.530000    47.920000
H     33.490000    56.550000    46.660000
O     27.810000    55.700000    43.440000
H     28.530000    56.320000    43.530000
H     28.130000    55.050000    42.820000
O     32.950000    56.520000    41.930000
H     33.200000    57.370000    42.280000
H     33.630000    55.920000    42.240000
O     35.230000    56.560000    46.040000
H     35.740000    55.780000    45.800000
H     35.810000    57.040000    46.640000
O     56.030000    35.940000    34.320000
H     55.640000    35.070000    34.400000
H     55.610000    36.450000    35.020000
O     54.810000    33.480000    34.680000
H     54.070000    33.940000    35.080000
H     55.190000    32.970000    35.390000
O     55.040000    31.730000    25.240000
H     55.570000    31.240000    25.870000
H     55.420000    32.610000    25.250000
O     53.040000    35.120000    36.020000
H     53.650000    35.770000    36.370000
H     52.260000    35.220000    36.560000
O     55.030000    36.870000    36.820000
H     55.710000    36.380000    37.280000
H     54.770000    37.550000    37.440000
O     56.360000    45.420000    31.780000
H     56.340000    46.170000    31.180000
H     56.660000    45.780000    32.610000
O     56.480000    44.380000    27.480000
H     57.010000    43.810000    26.930000
H     56.790000    44.210000    28.370000
O     40.640000    53.680000    37.180000
H     40.140000    52.880000    37.340000
H     39.980000    54.370000    37.090000
O     38.740000    55.550000    36.580000
H     38.570000    55.550000    35.640000
H     38.560000    56.450000    36.850000
O     53.650000    44.280000    27.040000
H     53.180000    44.690000    27.770000
H     54.560000    44.260000    27.320000
O     42.380000    57.080000    40.240000
H     41.930000    57.570000    39.550000
H     43.110000    56.660000    39.780000
O     40.520000    57.170000    42.330000
H     41.090000    57.020000    41.580000
H     39.890000    56.450000    42.300000
O     42.470000    57.760000    44.250000
H     43.190000    57.630000    43.630000
H     41.690000    57.460000    43.770000
O     56.590000    38.120000    28.180000
H     56.790000    37.230000    27.900000
H     55.660000    38.100000    28.390000
O     57.340000    35.970000    31.790000
H     56.730000    35.930000    32.520000
H     57.290000    36.870000    31.480000
O     56.740000    33.960000    25.170000
H     56.750000    34.490000    25.970000
H     57.390000    33.280000    25.330000
O     56.490000    31.320000    33.620000
H     56.030000    30.500000    33.420000
H     55.810000    31.990000    33.590000
O     57.230000    35.590000    27.340000
H     57.460000    35.100000    28.130000
H     58.070000    35.740000    26.900000
O     57.500000    39.870000    26.190000
H     57.000000    39.740000    25.390000
H     57.070000    39.310000    26.840000
O     57.600000    43.770000    29.920000
H     57.710000    42.860000    30.180000
H     57.200000    44.190000    30.670000
O     58.400000    41.150000    30.460000
H     57.920000    40.350000    30.660000
H     58.970000    40.920000    29.730000
O     56.280000    39.620000    23.730000
H     55.910000    40.300000    23.170000
H     56.600000    38.950000    23.130000
O     56.650000    42.710000    34.460000
H     57.340000    43.250000    34.070000
H     56.100000    42.460000    33.720000
O     57.490000    38.540000    30.760000
H     57.150000    38.400000    29.870000
H     58.410000    38.300000    30.710000
*
