created by fftool

8768 atoms
5573 bonds
3628 angles
48 dihedrals
362 impropers
8 atom types
3 bond types
4 angle types
1 dihedral types
2 improper types
0.000000 32.649500 xlo xhi
0.000000 34.800365 ylo yhi
0.000000 160.000000 zlo zhi

Masses

   1   12.010  # C
   2   15.999  # O
   3    1.008  # H
   4   22.990  # Na
   5   35.453  # Cl
   6   10.811  # B
   7   14.007  # N
   8    1.008  # HB

Bond Coeffs

   1   517.630258     0.957200  # O-H
   2   297.418738     1.320000  # B-N
   3   252.491635     1.200000  # B-HB

Angle Coeffs

   1    37.950526   104.520000  # H-O-H
   2    27.593212   120.000000  # N-B-N
   3    29.982075   119.900000  # N-B-HB
   4    70.351338   120.000000  # B-N-B

Dihedral Coeffs

   1     1.705     2     180     0.0  # B-N-B-HB

Improper Coeffs

   1    78.573136     0.000000  # N-N-B-N
   2    30.831740     0.000000  # B-B-N-B

Atoms

   1	1	1	0	1.25575100	5.07505200	6.91075000	#	C	graphene
2	1	1	0	0.00000100	7.25007500	6.91075000	#	C	graphene
3	1	1	0	6.27875100	0.72500700	6.91075000	#	C	graphene
4	1	1	0	5.02300100	2.90003000	6.91075000	#	C	graphene
5	1	1	0	3.76725100	5.07505200	6.91075000	#	C	graphene
6	1	1	0	2.51150100	7.25007500	6.91075000	#	C	graphene
7	1	1	0	1.25575100	9.42509800	6.91075000	#	C	graphene
8	1	1	0	0.00000100	11.60012000	6.91075000	#	C	graphene
9	1	1	0	8.79025100	0.72500700	6.91075000	#	C	graphene
10	1	1	0	7.53450100	2.90003000	6.91075000	#	C	graphene
11	1	1	0	6.27875100	5.07505200	6.91075000	#	C	graphene
12	1	1	0	5.02300100	7.25007500	6.91075000	#	C	graphene
13	1	1	0	3.76725100	9.42509800	6.91075000	#	C	graphene
14	1	1	0	2.51150100	11.60012000	6.91075000	#	C	graphene
15	1	1	0	1.25575100	13.77514300	6.91075000	#	C	graphene
16	1	1	0	0.00000100	15.95016600	6.91075000	#	C	graphene
17	1	1	0	11.30175100	0.72500700	6.91075000	#	C	graphene
18	1	1	0	10.04600100	2.90003000	6.91075000	#	C	graphene
19	1	1	0	8.79025100	5.07505200	6.91075000	#	C	graphene
20	1	1	0	7.53450100	7.25007500	6.91075000	#	C	graphene
21	1	1	0	6.27875100	9.42509800	6.91075000	#	C	graphene
22	1	1	0	5.02300100	11.60012000	6.91075000	#	C	graphene
23	1	1	0	3.76725100	13.77514300	6.91075000	#	C	graphene
24	1	1	0	2.51150100	15.95016600	6.91075000	#	C	graphene
25	1	1	0	1.25575100	18.12518800	6.91075000	#	C	graphene
26	1	1	0	0.00000100	20.30021100	6.91075000	#	C	graphene
27	1	1	0	13.81325100	0.72500700	6.91075000	#	C	graphene
28	1	1	0	12.55750100	2.90003000	6.91075000	#	C	graphene
29	1	1	0	11.30175100	5.07505200	6.91075000	#	C	graphene
30	1	1	0	10.04600100	7.25007500	6.91075000	#	C	graphene
31	1	1	0	8.79025100	9.42509800	6.91075000	#	C	graphene
32	1	1	0	7.53450100	11.60012000	6.91075000	#	C	graphene
33	1	1	0	6.27875100	13.77514300	6.91075000	#	C	graphene
34	1	1	0	5.02300100	15.95016600	6.91075000	#	C	graphene
35	1	1	0	3.76725100	18.12518800	6.91075000	#	C	graphene
36	1	1	0	2.51150100	20.30021100	6.91075000	#	C	graphene
37	1	1	0	1.25575100	22.47523400	6.91075000	#	C	graphene
38	1	1	0	0.00000100	24.65025700	6.91075000	#	C	graphene
39	1	1	0	16.32475000	0.72500700	6.91075000	#	C	graphene
40	1	1	0	15.06900100	2.90003000	6.91075000	#	C	graphene
41	1	1	0	13.81325100	5.07505200	6.91075000	#	C	graphene
42	1	1	0	12.55750100	7.25007500	6.91075000	#	C	graphene
43	1	1	0	11.30175100	9.42509800	6.91075000	#	C	graphene
44	1	1	0	10.04600100	11.60012000	6.91075000	#	C	graphene
45	1	1	0	8.79025100	13.77514300	6.91075000	#	C	graphene
46	1	1	0	7.53450100	15.95016600	6.91075000	#	C	graphene
47	1	1	0	6.27875100	18.12518800	6.91075000	#	C	graphene
48	1	1	0	5.02300100	20.30021100	6.91075000	#	C	graphene
49	1	1	0	3.76725100	22.47523400	6.91075000	#	C	graphene
50	1	1	0	2.51150100	24.65025700	6.91075000	#	C	graphene
51	1	1	0	1.25575100	26.82527900	6.91075000	#	C	graphene
52	1	1	0	0.00000100	29.00030200	6.91075000	#	C	graphene
53	1	1	0	18.83625000	0.72500700	6.91075000	#	C	graphene
54	1	1	0	17.58050000	2.90003000	6.91075000	#	C	graphene
55	1	1	0	16.32475000	5.07505200	6.91075000	#	C	graphene
56	1	1	0	15.06900100	7.25007500	6.91075000	#	C	graphene
57	1	1	0	13.81325100	9.42509800	6.91075000	#	C	graphene
58	1	1	0	12.55750100	11.60012000	6.91075000	#	C	graphene
59	1	1	0	11.30175100	13.77514300	6.91075000	#	C	graphene
60	1	1	0	10.04600100	15.95016600	6.91075000	#	C	graphene
61	1	1	0	8.79025100	18.12518800	6.91075000	#	C	graphene
62	1	1	0	7.53450100	20.30021100	6.91075000	#	C	graphene
63	1	1	0	6.27875100	22.47523400	6.91075000	#	C	graphene
64	1	1	0	5.02300100	24.65025700	6.91075000	#	C	graphene
65	1	1	0	3.76725100	26.82527900	6.91075000	#	C	graphene
66	1	1	0	2.51150100	29.00030200	6.91075000	#	C	graphene
67	1	1	0	1.25575100	31.17532500	6.91075000	#	C	graphene
68	1	1	0	0.00000100	33.35034700	6.91075000	#	C	graphene
69	1	1	0	21.34775000	0.72500700	6.91075000	#	C	graphene
70	1	1	0	20.09200000	2.90003000	6.91075000	#	C	graphene
71	1	1	0	18.83625000	5.07505200	6.91075000	#	C	graphene
72	1	1	0	17.58050000	7.25007500	6.91075000	#	C	graphene
73	1	1	0	16.32475000	9.42509800	6.91075000	#	C	graphene
74	1	1	0	15.06900100	11.60012000	6.91075000	#	C	graphene
75	1	1	0	13.81325100	13.77514300	6.91075000	#	C	graphene
76	1	1	0	12.55750100	15.95016600	6.91075000	#	C	graphene
77	1	1	0	11.30175100	18.12518800	6.91075000	#	C	graphene
78	1	1	0	10.04600100	20.30021100	6.91075000	#	C	graphene
79	1	1	0	8.79025100	22.47523400	6.91075000	#	C	graphene
80	1	1	0	7.53450100	24.65025700	6.91075000	#	C	graphene
81	1	1	0	6.27875100	26.82527900	6.91075000	#	C	graphene
82	1	1	0	5.02300100	29.00030200	6.91075000	#	C	graphene
83	1	1	0	3.76725100	31.17532500	6.91075000	#	C	graphene
84	1	1	0	2.51150100	33.35034700	6.91075000	#	C	graphene
85	1	1	0	23.85925000	0.72500700	6.91075000	#	C	graphene
86	1	1	0	22.60350000	2.90003000	6.91075000	#	C	graphene
87	1	1	0	21.34775000	5.07505200	6.91075000	#	C	graphene
88	1	1	0	20.09200000	7.25007500	6.91075000	#	C	graphene
89	1	1	0	18.83625000	9.42509800	6.91075000	#	C	graphene
90	1	1	0	17.58050000	11.60012000	6.91075000	#	C	graphene
91	1	1	0	16.32475000	13.77514300	6.91075000	#	C	graphene
92	1	1	0	15.06900100	15.95016600	6.91075000	#	C	graphene
93	1	1	0	13.81325100	18.12518800	6.91075000	#	C	graphene
94	1	1	0	12.55750100	20.30021100	6.91075000	#	C	graphene
95	1	1	0	11.30175100	22.47523400	6.91075000	#	C	graphene
96	1	1	0	10.04600100	24.65025700	6.91075000	#	C	graphene
97	1	1	0	8.79025100	26.82527900	6.91075000	#	C	graphene
98	1	1	0	7.53450100	29.00030200	6.91075000	#	C	graphene
99	1	1	0	6.27875100	31.17532500	6.91075000	#	C	graphene
100	1	1	0	5.02300100	33.35034700	6.91075000	#	C	graphene
101	1	1	0	26.37075000	0.72500700	6.91075000	#	C	graphene
102	1	1	0	25.11500000	2.90003000	6.91075000	#	C	graphene
103	1	1	0	23.85925000	5.07505200	6.91075000	#	C	graphene
104	1	1	0	22.60350000	7.25007500	6.91075000	#	C	graphene
105	1	1	0	21.34775000	9.42509800	6.91075000	#	C	graphene
106	1	1	0	20.09200000	11.60012000	6.91075000	#	C	graphene
107	1	1	0	18.83625000	13.77514300	6.91075000	#	C	graphene
108	1	1	0	17.58050000	15.95016600	6.91075000	#	C	graphene
109	1	1	0	16.32475000	18.12518800	6.91075000	#	C	graphene
110	1	1	0	15.06900100	20.30021100	6.91075000	#	C	graphene
111	1	1	0	13.81325100	22.47523400	6.91075000	#	C	graphene
112	1	1	0	12.55750100	24.65025700	6.91075000	#	C	graphene
113	1	1	0	11.30175100	26.82527900	6.91075000	#	C	graphene
114	1	1	0	10.04600100	29.00030200	6.91075000	#	C	graphene
115	1	1	0	8.79025100	31.17532500	6.91075000	#	C	graphene
116	1	1	0	7.53450100	33.35034700	6.91075000	#	C	graphene
117	1	1	0	28.88225000	0.72500700	6.91075000	#	C	graphene
118	1	1	0	27.62650000	2.90003000	6.91075000	#	C	graphene
119	1	1	0	26.37075000	5.07505200	6.91075000	#	C	graphene
120	1	1	0	25.11500000	7.25007500	6.91075000	#	C	graphene
121	1	1	0	23.85925000	9.42509800	6.91075000	#	C	graphene
122	1	1	0	22.60350000	11.60012000	6.91075000	#	C	graphene
123	1	1	0	21.34775000	13.77514300	6.91075000	#	C	graphene
124	1	1	0	20.09200000	15.95016600	6.91075000	#	C	graphene
125	1	1	0	18.83625000	18.12518800	6.91075000	#	C	graphene
126	1	1	0	17.58050000	20.30021100	6.91075000	#	C	graphene
127	1	1	0	16.32475000	22.47523400	6.91075000	#	C	graphene
128	1	1	0	15.06900100	24.65025700	6.91075000	#	C	graphene
129	1	1	0	13.81325100	26.82527900	6.91075000	#	C	graphene
130	1	1	0	12.55750100	29.00030200	6.91075000	#	C	graphene
131	1	1	0	11.30175100	31.17532500	6.91075000	#	C	graphene
132	1	1	0	10.04600100	33.35034700	6.91075000	#	C	graphene
133	1	1	0	31.39375000	0.72500700	6.91075000	#	C	graphene
134	1	1	0	30.13800000	2.90003000	6.91075000	#	C	graphene
135	1	1	0	28.88225000	5.07505200	6.91075000	#	C	graphene
136	1	1	0	27.62650000	7.25007500	6.91075000	#	C	graphene
137	1	1	0	26.37075000	9.42509800	6.91075000	#	C	graphene
138	1	1	0	25.11500000	11.60012000	6.91075000	#	C	graphene
139	1	1	0	23.85925000	13.77514300	6.91075000	#	C	graphene
140	1	1	0	22.60350000	15.95016600	6.91075000	#	C	graphene
141	1	1	0	21.34775000	18.12518800	6.91075000	#	C	graphene
142	1	1	0	20.09200000	20.30021100	6.91075000	#	C	graphene
143	1	1	0	18.83625000	22.47523400	6.91075000	#	C	graphene
144	1	1	0	17.58050000	24.65025700	6.91075000	#	C	graphene
145	1	1	0	16.32475000	26.82527900	6.91075000	#	C	graphene
146	1	1	0	15.06900100	29.00030200	6.91075000	#	C	graphene
147	1	1	0	13.81325100	31.17532500	6.91075000	#	C	graphene
148	1	1	0	12.55750100	33.35034700	6.91075000	#	C	graphene
149	1	1	0	31.39375000	5.07505200	6.91075000	#	C	graphene
150	1	1	0	30.13800000	7.25007500	6.91075000	#	C	graphene
151	1	1	0	28.88225000	9.42509800	6.91075000	#	C	graphene
152	1	1	0	27.62650000	11.60012000	6.91075000	#	C	graphene
153	1	1	0	26.37075000	13.77514300	6.91075000	#	C	graphene
154	1	1	0	25.11500000	15.95016600	6.91075000	#	C	graphene
155	1	1	0	23.85925000	18.12518800	6.91075000	#	C	graphene
156	1	1	0	22.60350000	20.30021100	6.91075000	#	C	graphene
157	1	1	0	21.34775000	22.47523400	6.91075000	#	C	graphene
158	1	1	0	20.09200000	24.65025700	6.91075000	#	C	graphene
159	1	1	0	18.83625000	26.82527900	6.91075000	#	C	graphene
160	1	1	0	17.58050000	29.00030200	6.91075000	#	C	graphene
161	1	1	0	16.32475000	31.17532500	6.91075000	#	C	graphene
162	1	1	0	15.06900100	33.35034700	6.91075000	#	C	graphene
163	1	1	0	31.39375000	9.42509800	6.91075000	#	C	graphene
164	1	1	0	30.13800000	11.60012000	6.91075000	#	C	graphene
165	1	1	0	28.88225000	13.77514300	6.91075000	#	C	graphene
166	1	1	0	27.62650000	15.95016600	6.91075000	#	C	graphene
167	1	1	0	26.37075000	18.12518800	6.91075000	#	C	graphene
168	1	1	0	25.11500000	20.30021100	6.91075000	#	C	graphene
169	1	1	0	23.85925000	22.47523400	6.91075000	#	C	graphene
170	1	1	0	22.60350000	24.65025700	6.91075000	#	C	graphene
171	1	1	0	21.34775000	26.82527900	6.91075000	#	C	graphene
172	1	1	0	20.09200000	29.00030200	6.91075000	#	C	graphene
173	1	1	0	18.83625000	31.17532500	6.91075000	#	C	graphene
174	1	1	0	17.58050000	33.35034700	6.91075000	#	C	graphene
175	1	1	0	31.39375000	13.77514300	6.91075000	#	C	graphene
176	1	1	0	30.13800000	15.95016600	6.91075000	#	C	graphene
177	1	1	0	28.88225000	18.12518800	6.91075000	#	C	graphene
178	1	1	0	27.62650000	20.30021100	6.91075000	#	C	graphene
179	1	1	0	26.37075000	22.47523400	6.91075000	#	C	graphene
180	1	1	0	25.11500000	24.65025700	6.91075000	#	C	graphene
181	1	1	0	23.85925000	26.82527900	6.91075000	#	C	graphene
182	1	1	0	22.60350000	29.00030200	6.91075000	#	C	graphene
183	1	1	0	21.34775000	31.17532500	6.91075000	#	C	graphene
184	1	1	0	20.09200000	33.35034700	6.91075000	#	C	graphene
185	1	1	0	31.39375000	18.12518800	6.91075000	#	C	graphene
186	1	1	0	30.13800000	20.30021100	6.91075000	#	C	graphene
187	1	1	0	28.88225000	22.47523400	6.91075000	#	C	graphene
188	1	1	0	27.62650000	24.65025700	6.91075000	#	C	graphene
189	1	1	0	26.37075000	26.82527900	6.91075000	#	C	graphene
190	1	1	0	25.11500000	29.00030200	6.91075000	#	C	graphene
191	1	1	0	23.85925000	31.17532500	6.91075000	#	C	graphene
192	1	1	0	22.60350000	33.35034700	6.91075000	#	C	graphene
193	1	1	0	31.39375000	22.47523400	6.91075000	#	C	graphene
194	1	1	0	30.13800000	24.65025700	6.91075000	#	C	graphene
195	1	1	0	28.88225000	26.82527900	6.91075000	#	C	graphene
196	1	1	0	27.62650000	29.00030200	6.91075000	#	C	graphene
197	1	1	0	26.37075000	31.17532500	6.91075000	#	C	graphene
198	1	1	0	25.11500000	33.35034700	6.91075000	#	C	graphene
199	1	1	0	31.39375000	26.82527900	6.91075000	#	C	graphene
200	1	1	0	30.13800000	29.00030200	6.91075000	#	C	graphene
201	1	1	0	28.88225000	31.17532500	6.91075000	#	C	graphene
202	1	1	0	27.62650000	33.35034700	6.91075000	#	C	graphene
203	1	1	0	31.39375000	31.17532500	6.91075000	#	C	graphene
204	1	1	0	30.13800000	33.35034700	6.91075000	#	C	graphene
205	1	1	0	-0.00000100	1.45001600	6.91075000	#	C	graphene
206	1	1	0	2.51149900	1.45001600	6.91075000	#	C	graphene
207	1	1	0	1.25574900	3.62503900	6.91075000	#	C	graphene
208	1	1	0	-0.00000100	5.80006100	6.91075000	#	C	graphene
209	1	1	0	5.02299800	1.45001600	6.91075000	#	C	graphene
210	1	1	0	3.76724900	3.62503900	6.91075000	#	C	graphene
211	1	1	0	2.51149900	5.80006100	6.91075000	#	C	graphene
212	1	1	0	1.25574900	7.97508400	6.91075000	#	C	graphene
213	1	1	0	-0.00000100	10.15010700	6.91075000	#	C	graphene
214	1	1	0	7.53449800	1.45001600	6.91075000	#	C	graphene
215	1	1	0	6.27874800	3.62503900	6.91075000	#	C	graphene
216	1	1	0	5.02299800	5.80006100	6.91075000	#	C	graphene
217	1	1	0	3.76724900	7.97508400	6.91075000	#	C	graphene
218	1	1	0	2.51149900	10.15010700	6.91075000	#	C	graphene
219	1	1	0	1.25574900	12.32512900	6.91075000	#	C	graphene
220	1	1	0	-0.00000100	14.50015200	6.91075000	#	C	graphene
221	1	1	0	10.04599800	1.45001600	6.91075000	#	C	graphene
222	1	1	0	8.79024800	3.62503900	6.91075000	#	C	graphene
223	1	1	0	7.53449800	5.80006100	6.91075000	#	C	graphene
224	1	1	0	6.27874800	7.97508400	6.91075000	#	C	graphene
225	1	1	0	5.02299800	10.15010700	6.91075000	#	C	graphene
226	1	1	0	3.76724900	12.32512900	6.91075000	#	C	graphene
227	1	1	0	2.51149900	14.50015200	6.91075000	#	C	graphene
228	1	1	0	1.25574900	16.67517500	6.91075000	#	C	graphene
229	1	1	0	-0.00000100	18.85019700	6.91075000	#	C	graphene
230	1	1	0	12.55749800	1.45001600	6.91075000	#	C	graphene
231	1	1	0	11.30174800	3.62503900	6.91075000	#	C	graphene
232	1	1	0	10.04599800	5.80006100	6.91075000	#	C	graphene
233	1	1	0	8.79024800	7.97508400	6.91075000	#	C	graphene
234	1	1	0	7.53449800	10.15010700	6.91075000	#	C	graphene
235	1	1	0	6.27874800	12.32512900	6.91075000	#	C	graphene
236	1	1	0	5.02299800	14.50015200	6.91075000	#	C	graphene
237	1	1	0	3.76724900	16.67517500	6.91075000	#	C	graphene
238	1	1	0	2.51149900	18.85019700	6.91075000	#	C	graphene
239	1	1	0	1.25574900	21.02522000	6.91075000	#	C	graphene
240	1	1	0	-0.00000100	23.20024300	6.91075000	#	C	graphene
241	1	1	0	15.06899800	1.45001600	6.91075000	#	C	graphene
242	1	1	0	13.81324800	3.62503900	6.91075000	#	C	graphene
243	1	1	0	12.55749800	5.80006100	6.91075000	#	C	graphene
244	1	1	0	11.30174800	7.97508400	6.91075000	#	C	graphene
245	1	1	0	10.04599800	10.15010700	6.91075000	#	C	graphene
246	1	1	0	8.79024800	12.32512900	6.91075000	#	C	graphene
247	1	1	0	7.53449800	14.50015200	6.91075000	#	C	graphene
248	1	1	0	6.27874800	16.67517500	6.91075000	#	C	graphene
249	1	1	0	5.02299800	18.85019700	6.91075000	#	C	graphene
250	1	1	0	3.76724900	21.02522000	6.91075000	#	C	graphene
251	1	1	0	2.51149900	23.20024300	6.91075000	#	C	graphene
252	1	1	0	1.25574900	25.37526600	6.91075000	#	C	graphene
253	1	1	0	-0.00000100	27.55028800	6.91075000	#	C	graphene
254	1	1	0	17.58049800	1.45001600	6.91075000	#	C	graphene
255	1	1	0	16.32474800	3.62503900	6.91075000	#	C	graphene
256	1	1	0	15.06899800	5.80006100	6.91075000	#	C	graphene
257	1	1	0	13.81324800	7.97508400	6.91075000	#	C	graphene
258	1	1	0	12.55749800	10.15010700	6.91075000	#	C	graphene
259	1	1	0	11.30174800	12.32512900	6.91075000	#	C	graphene
260	1	1	0	10.04599800	14.50015200	6.91075000	#	C	graphene
261	1	1	0	8.79024800	16.67517500	6.91075000	#	C	graphene
262	1	1	0	7.53449800	18.85019700	6.91075000	#	C	graphene
263	1	1	0	6.27874800	21.02522000	6.91075000	#	C	graphene
264	1	1	0	5.02299800	23.20024300	6.91075000	#	C	graphene
265	1	1	0	3.76724900	25.37526600	6.91075000	#	C	graphene
266	1	1	0	2.51149900	27.55028800	6.91075000	#	C	graphene
267	1	1	0	1.25574900	29.72531100	6.91075000	#	C	graphene
268	1	1	0	-0.00000100	31.90033400	6.91075000	#	C	graphene
269	1	1	0	20.09199800	1.45001600	6.91075000	#	C	graphene
270	1	1	0	18.83624800	3.62503900	6.91075000	#	C	graphene
271	1	1	0	17.58049800	5.80006100	6.91075000	#	C	graphene
272	1	1	0	16.32474800	7.97508400	6.91075000	#	C	graphene
273	1	1	0	15.06899800	10.15010700	6.91075000	#	C	graphene
274	1	1	0	13.81324800	12.32512900	6.91075000	#	C	graphene
275	1	1	0	12.55749800	14.50015200	6.91075000	#	C	graphene
276	1	1	0	11.30174800	16.67517500	6.91075000	#	C	graphene
277	1	1	0	10.04599800	18.85019700	6.91075000	#	C	graphene
278	1	1	0	8.79024800	21.02522000	6.91075000	#	C	graphene
279	1	1	0	7.53449800	23.20024300	6.91075000	#	C	graphene
280	1	1	0	6.27874800	25.37526600	6.91075000	#	C	graphene
281	1	1	0	5.02299800	27.55028800	6.91075000	#	C	graphene
282	1	1	0	3.76724900	29.72531100	6.91075000	#	C	graphene
283	1	1	0	2.51149900	31.90033400	6.91075000	#	C	graphene
284	1	1	0	1.25574900	34.07535600	6.91075000	#	C	graphene
285	1	1	0	22.60349800	1.45001600	6.91075000	#	C	graphene
286	1	1	0	21.34774800	3.62503900	6.91075000	#	C	graphene
287	1	1	0	20.09199800	5.80006100	6.91075000	#	C	graphene
288	1	1	0	18.83624800	7.97508400	6.91075000	#	C	graphene
289	1	1	0	17.58049800	10.15010700	6.91075000	#	C	graphene
290	1	1	0	16.32474800	12.32512900	6.91075000	#	C	graphene
291	1	1	0	15.06899800	14.50015200	6.91075000	#	C	graphene
292	1	1	0	13.81324800	16.67517500	6.91075000	#	C	graphene
293	1	1	0	12.55749800	18.85019700	6.91075000	#	C	graphene
294	1	1	0	11.30174800	21.02522000	6.91075000	#	C	graphene
295	1	1	0	10.04599800	23.20024300	6.91075000	#	C	graphene
296	1	1	0	8.79024800	25.37526600	6.91075000	#	C	graphene
297	1	1	0	7.53449800	27.55028800	6.91075000	#	C	graphene
298	1	1	0	6.27874800	29.72531100	6.91075000	#	C	graphene
299	1	1	0	5.02299800	31.90033400	6.91075000	#	C	graphene
300	1	1	0	3.76724900	34.07535600	6.91075000	#	C	graphene
301	1	1	0	25.11499800	1.45001600	6.91075000	#	C	graphene
302	1	1	0	23.85924800	3.62503900	6.91075000	#	C	graphene
303	1	1	0	22.60349800	5.80006100	6.91075000	#	C	graphene
304	1	1	0	21.34774800	7.97508400	6.91075000	#	C	graphene
305	1	1	0	20.09199800	10.15010700	6.91075000	#	C	graphene
306	1	1	0	18.83624800	12.32512900	6.91075000	#	C	graphene
307	1	1	0	17.58049800	14.50015200	6.91075000	#	C	graphene
308	1	1	0	16.32474800	16.67517500	6.91075000	#	C	graphene
309	1	1	0	15.06899800	18.85019700	6.91075000	#	C	graphene
310	1	1	0	13.81324800	21.02522000	6.91075000	#	C	graphene
311	1	1	0	12.55749800	23.20024300	6.91075000	#	C	graphene
312	1	1	0	11.30174800	25.37526600	6.91075000	#	C	graphene
313	1	1	0	10.04599800	27.55028800	6.91075000	#	C	graphene
314	1	1	0	8.79024800	29.72531100	6.91075000	#	C	graphene
315	1	1	0	7.53449800	31.90033400	6.91075000	#	C	graphene
316	1	1	0	6.27874800	34.07535600	6.91075000	#	C	graphene
317	1	1	0	27.62649700	1.45001600	6.91075000	#	C	graphene
318	1	1	0	26.37074700	3.62503900	6.91075000	#	C	graphene
319	1	1	0	25.11499800	5.80006100	6.91075000	#	C	graphene
320	1	1	0	23.85924800	7.97508400	6.91075000	#	C	graphene
321	1	1	0	22.60349800	10.15010700	6.91075000	#	C	graphene
322	1	1	0	21.34774800	12.32512900	6.91075000	#	C	graphene
323	1	1	0	20.09199800	14.50015200	6.91075000	#	C	graphene
324	1	1	0	18.83624800	16.67517500	6.91075000	#	C	graphene
325	1	1	0	17.58049800	18.85019700	6.91075000	#	C	graphene
326	1	1	0	16.32474800	21.02522000	6.91075000	#	C	graphene
327	1	1	0	15.06899800	23.20024300	6.91075000	#	C	graphene
328	1	1	0	13.81324800	25.37526600	6.91075000	#	C	graphene
329	1	1	0	12.55749800	27.55028800	6.91075000	#	C	graphene
330	1	1	0	11.30174800	29.72531100	6.91075000	#	C	graphene
331	1	1	0	10.04599800	31.90033400	6.91075000	#	C	graphene
332	1	1	0	8.79024800	34.07535600	6.91075000	#	C	graphene
333	1	1	0	30.13799700	1.45001600	6.91075000	#	C	graphene
334	1	1	0	28.88224700	3.62503900	6.91075000	#	C	graphene
335	1	1	0	27.62649700	5.80006100	6.91075000	#	C	graphene
336	1	1	0	26.37074700	7.97508400	6.91075000	#	C	graphene
337	1	1	0	25.11499800	10.15010700	6.91075000	#	C	graphene
338	1	1	0	23.85924800	12.32512900	6.91075000	#	C	graphene
339	1	1	0	22.60349800	14.50015200	6.91075000	#	C	graphene
340	1	1	0	21.34774800	16.67517500	6.91075000	#	C	graphene
341	1	1	0	20.09199800	18.85019700	6.91075000	#	C	graphene
342	1	1	0	18.83624800	21.02522000	6.91075000	#	C	graphene
343	1	1	0	17.58049800	23.20024300	6.91075000	#	C	graphene
344	1	1	0	16.32474800	25.37526600	6.91075000	#	C	graphene
345	1	1	0	15.06899800	27.55028800	6.91075000	#	C	graphene
346	1	1	0	13.81324800	29.72531100	6.91075000	#	C	graphene
347	1	1	0	12.55749800	31.90033400	6.91075000	#	C	graphene
348	1	1	0	11.30174800	34.07535600	6.91075000	#	C	graphene
349	1	1	0	31.39374700	3.62503900	6.91075000	#	C	graphene
350	1	1	0	30.13799700	5.80006100	6.91075000	#	C	graphene
351	1	1	0	28.88224700	7.97508400	6.91075000	#	C	graphene
352	1	1	0	27.62649700	10.15010700	6.91075000	#	C	graphene
353	1	1	0	26.37074700	12.32512900	6.91075000	#	C	graphene
354	1	1	0	25.11499800	14.50015200	6.91075000	#	C	graphene
355	1	1	0	23.85924800	16.67517500	6.91075000	#	C	graphene
356	1	1	0	22.60349800	18.85019700	6.91075000	#	C	graphene
357	1	1	0	21.34774800	21.02522000	6.91075000	#	C	graphene
358	1	1	0	20.09199800	23.20024300	6.91075000	#	C	graphene
359	1	1	0	18.83624800	25.37526600	6.91075000	#	C	graphene
360	1	1	0	17.58049800	27.55028800	6.91075000	#	C	graphene
361	1	1	0	16.32474800	29.72531100	6.91075000	#	C	graphene
362	1	1	0	15.06899800	31.90033400	6.91075000	#	C	graphene
363	1	1	0	13.81324800	34.07535600	6.91075000	#	C	graphene
364	1	1	0	31.39374700	7.97508400	6.91075000	#	C	graphene
365	1	1	0	30.13799700	10.15010700	6.91075000	#	C	graphene
366	1	1	0	28.88224700	12.32512900	6.91075000	#	C	graphene
367	1	1	0	27.62649700	14.50015200	6.91075000	#	C	graphene
368	1	1	0	26.37074700	16.67517500	6.91075000	#	C	graphene
369	1	1	0	25.11499800	18.85019700	6.91075000	#	C	graphene
370	1	1	0	23.85924800	21.02522000	6.91075000	#	C	graphene
371	1	1	0	22.60349800	23.20024300	6.91075000	#	C	graphene
372	1	1	0	21.34774800	25.37526600	6.91075000	#	C	graphene
373	1	1	0	20.09199800	27.55028800	6.91075000	#	C	graphene
374	1	1	0	18.83624800	29.72531100	6.91075000	#	C	graphene
375	1	1	0	17.58049800	31.90033400	6.91075000	#	C	graphene
376	1	1	0	16.32474800	34.07535600	6.91075000	#	C	graphene
377	1	1	0	31.39374700	12.32512900	6.91075000	#	C	graphene
378	1	1	0	30.13799700	14.50015200	6.91075000	#	C	graphene
379	1	1	0	28.88224700	16.67517500	6.91075000	#	C	graphene
380	1	1	0	27.62649700	18.85019700	6.91075000	#	C	graphene
381	1	1	0	26.37074700	21.02522000	6.91075000	#	C	graphene
382	1	1	0	25.11499800	23.20024300	6.91075000	#	C	graphene
383	1	1	0	23.85924800	25.37526600	6.91075000	#	C	graphene
384	1	1	0	22.60349800	27.55028800	6.91075000	#	C	graphene
385	1	1	0	21.34774800	29.72531100	6.91075000	#	C	graphene
386	1	1	0	20.09199800	31.90033400	6.91075000	#	C	graphene
387	1	1	0	18.83624800	34.07535600	6.91075000	#	C	graphene
388	1	1	0	31.39374700	16.67517500	6.91075000	#	C	graphene
389	1	1	0	30.13799700	18.85019700	6.91075000	#	C	graphene
390	1	1	0	28.88224700	21.02522000	6.91075000	#	C	graphene
391	1	1	0	27.62649700	23.20024300	6.91075000	#	C	graphene
392	1	1	0	26.37074700	25.37526600	6.91075000	#	C	graphene
393	1	1	0	25.11499800	27.55028800	6.91075000	#	C	graphene
394	1	1	0	23.85924800	29.72531100	6.91075000	#	C	graphene
395	1	1	0	22.60349800	31.90033400	6.91075000	#	C	graphene
396	1	1	0	21.34774800	34.07535600	6.91075000	#	C	graphene
397	1	1	0	31.39374700	21.02522000	6.91075000	#	C	graphene
398	1	1	0	30.13799700	23.20024300	6.91075000	#	C	graphene
399	1	1	0	28.88224700	25.37526600	6.91075000	#	C	graphene
400	1	1	0	27.62649700	27.55028800	6.91075000	#	C	graphene
401	1	1	0	26.37074700	29.72531100	6.91075000	#	C	graphene
402	1	1	0	25.11499800	31.90033400	6.91075000	#	C	graphene
403	1	1	0	23.85924800	34.07535600	6.91075000	#	C	graphene
404	1	1	0	31.39374700	25.37526600	6.91075000	#	C	graphene
405	1	1	0	30.13799700	27.55028800	6.91075000	#	C	graphene
406	1	1	0	28.88224700	29.72531100	6.91075000	#	C	graphene
407	1	1	0	27.62649700	31.90033400	6.91075000	#	C	graphene
408	1	1	0	26.37074700	34.07535600	6.91075000	#	C	graphene
409	1	1	0	31.39374700	29.72531100	6.91075000	#	C	graphene
410	1	1	0	30.13799700	31.90033400	6.91075000	#	C	graphene
411	1	1	0	28.88224700	34.07535600	6.91075000	#	C	graphene
412	1	1	0	31.39374700	34.07535600	6.91075000	#	C	graphene
413	1	1	0	1.25575100	0.72500700	6.91075000	#	C	graphene
414	1	1	0	0.00000100	2.90003000	6.91075000	#	C	graphene
415	1	1	0	3.76725100	0.72500700	6.91075000	#	C	graphene
416	1	1	0	2.51150100	2.90003000	6.91075000	#	C	graphene
417	2	2	-1.1128	23.78366300	19.87450100	24.71446000	#	O	TIP4P
418	2	3	0.5564	24.08216900	20.77100400	24.56145800	#	H	TIP4P
419	2	3	0.5564	22.94893400	19.97431700	25.17216600	#	H	TIP4P
420	3	2	-1.1128	16.85475000	8.45071100	57.54545300	#	O	TIP4P
421	3	3	0.5564	17.20416100	9.02024500	56.86005200	#	H	TIP4P
422	3	3	0.5564	15.92665400	8.35792400	57.33037100	#	H	TIP4P
423	4	2	-1.1128	5.39216400	1.50884600	66.52635800	#	O	TIP4P
424	4	3	0.5564	5.61445200	1.49580700	65.59541800	#	H	TIP4P
425	4	3	0.5564	6.23752300	1.49539800	66.97515600	#	H	TIP4P
426	5	2	-1.1128	12.71663800	32.75164500	46.38681400	#	O	TIP4P
427	5	3	0.5564	11.82801500	32.54240600	46.67456500	#	H	TIP4P
428	5	3	0.5564	12.59502500	33.30334600	45.61411300	#	H	TIP4P
429	6	2	-1.1128	28.69634700	30.18021900	66.79928300	#	O	TIP4P
430	6	3	0.5564	28.31471000	31.03920600	66.98019000	#	H	TIP4P
431	6	3	0.5564	29.64164500	30.33019700	66.81153200	#	H	TIP4P
432	7	2	-1.1128	19.57763700	19.50715100	58.80958400	#	O	TIP4P
433	7	3	0.5564	20.22517900	18.80351400	58.76696300	#	H	TIP4P
434	7	3	0.5564	19.12635900	19.46939900	57.96628400	#	H	TIP4P
435	8	2	-1.1128	25.25138800	2.45771600	42.70947700	#	O	TIP4P
436	8	3	0.5564	24.69131400	3.21066400	42.52075000	#	H	TIP4P
437	8	3	0.5564	24.72007100	1.69783000	42.47176300	#	H	TIP4P
438	9	2	-1.1128	30.84392300	15.10439400	19.91720900	#	O	TIP4P
439	9	3	0.5564	31.13703700	14.74928400	20.75638300	#	H	TIP4P
440	9	3	0.5564	31.15971100	16.00800100	19.91554300	#	H	TIP4P
441	10	2	-1.1128	31.15112900	19.18783200	12.80056100	#	O	TIP4P
442	10	3	0.5564	30.91778000	18.52979800	12.14575500	#	H	TIP4P
443	10	3	0.5564	31.15374400	18.71042600	13.63020400	#	H	TIP4P
444	11	2	-1.1128	31.06170300	2.89092400	26.35201200	#	O	TIP4P
445	11	3	0.5564	30.11592500	2.74617600	26.32399300	#	H	TIP4P
446	11	3	0.5564	31.15620100	3.81885000	26.56708400	#	H	TIP4P
447	12	2	-1.1128	5.46299800	4.87948500	14.79920300	#	O	TIP4P
448	12	3	0.5564	5.90700500	4.34710600	14.13915500	#	H	TIP4P
449	12	3	0.5564	5.19901200	4.25410400	15.47406700	#	H	TIP4P
450	13	2	-1.1128	27.98891500	28.80343500	51.89501300	#	O	TIP4P
451	13	3	0.5564	27.72598200	29.72267700	51.94075700	#	H	TIP4P
452	13	3	0.5564	28.50386700	28.66130600	52.68927700	#	H	TIP4P
453	14	2	-1.1128	19.48210800	21.12640800	21.85692500	#	O	TIP4P
454	14	3	0.5564	18.56656900	20.85117400	21.90453100	#	H	TIP4P
455	14	3	0.5564	19.82472100	20.68675900	21.07875000	#	H	TIP4P
456	15	2	-1.1128	16.59294100	16.72313600	46.21908300	#	O	TIP4P
457	15	3	0.5564	16.71126500	16.03107600	45.56848000	#	H	TIP4P
458	15	3	0.5564	16.25690900	16.27041600	46.99261900	#	H	TIP4P
459	16	2	-1.1128	24.74746200	12.54946100	10.70847500	#	O	TIP4P
460	16	3	0.5564	24.72276300	13.05087300	9.89348600	#	H	TIP4P
461	16	3	0.5564	24.69849400	13.21082200	11.39871700	#	H	TIP4P
462	17	2	-1.1128	14.91558300	1.71253900	27.80606500	#	O	TIP4P
463	17	3	0.5564	15.05408200	2.28327800	27.05021600	#	H	TIP4P
464	17	3	0.5564	13.99018400	1.47241000	27.75909600	#	H	TIP4P
465	18	2	-1.1128	30.72905700	4.88056900	60.78748800	#	O	TIP4P
466	18	3	0.5564	31.15854700	4.90627300	61.64253800	#	H	TIP4P
467	18	3	0.5564	31.15234000	4.15534500	60.32801800	#	H	TIP4P
468	19	2	-1.1128	19.24577100	10.81913900	57.25660500	#	O	TIP4P
469	19	3	0.5564	19.89979500	11.51094400	57.35604400	#	H	TIP4P
470	19	3	0.5564	19.74105600	10.00540100	57.35017100	#	H	TIP4P
471	20	2	-1.1128	15.73635800	33.29821400	61.44681500	#	O	TIP4P
472	20	3	0.5564	15.03614500	32.99053300	62.02237200	#	H	TIP4P
473	20	3	0.5564	16.51164800	33.32899700	62.00735800	#	H	TIP4P
474	21	2	-1.1128	18.10023800	4.82885700	43.70099500	#	O	TIP4P
475	21	3	0.5564	17.24575800	4.41713500	43.57222800	#	H	TIP4P
476	21	3	0.5564	18.72929000	4.17981000	43.38593400	#	H	TIP4P
477	22	2	-1.1128	14.60301000	9.25077700	48.91162000	#	O	TIP4P
478	22	3	0.5564	14.85150900	10.03364600	48.42009500	#	H	TIP4P
479	22	3	0.5564	13.64643700	9.27593000	48.93542300	#	H	TIP4P
480	23	2	-1.1128	7.31486400	1.44009500	41.21766400	#	O	TIP4P
481	23	3	0.5564	6.66811900	1.49438000	41.92123100	#	H	TIP4P
482	23	3	0.5564	8.15989000	1.49929500	41.66337500	#	H	TIP4P
483	24	2	-1.1128	1.48668200	15.93724300	28.09899900	#	O	TIP4P
484	24	3	0.5564	1.49947000	16.80100700	28.51128500	#	H	TIP4P
485	24	3	0.5564	1.69227300	15.32927900	28.80917100	#	H	TIP4P
486	25	2	-1.1128	30.42397900	26.56779500	30.03243600	#	O	TIP4P
487	25	3	0.5564	29.51460700	26.86655700	30.02852400	#	H	TIP4P
488	25	3	0.5564	30.36281900	25.61321000	30.06791400	#	H	TIP4P
489	26	2	-1.1128	5.73382200	7.09468200	69.53282400	#	O	TIP4P
490	26	3	0.5564	6.35033400	7.81240700	69.67779400	#	H	TIP4P
491	26	3	0.5564	5.40796800	6.87807300	70.40639800	#	H	TIP4P
492	27	2	-1.1128	4.00085400	32.72568600	58.67972700	#	O	TIP4P
493	27	3	0.5564	4.76242000	33.29886600	58.59189400	#	H	TIP4P
494	27	3	0.5564	3.24878200	33.30654900	58.56475800	#	H	TIP4P
495	28	2	-1.1128	22.74780900	16.94534500	55.73219300	#	O	TIP4P
496	28	3	0.5564	22.11262400	16.68640900	56.39981900	#	H	TIP4P
497	28	3	0.5564	23.58825200	16.63159600	56.06603200	#	H	TIP4P
498	29	2	-1.1128	30.77059500	7.65194900	63.87434400	#	O	TIP4P
499	29	3	0.5564	31.15137900	7.36056200	63.04589500	#	H	TIP4P
500	29	3	0.5564	31.15515700	7.07261300	64.53215400	#	H	TIP4P
501	30	2	-1.1128	7.15232500	16.09433900	29.72875700	#	O	TIP4P
502	30	3	0.5564	7.94483100	16.44561800	30.13467500	#	H	TIP4P
503	30	3	0.5564	6.75978200	16.84364800	29.28078700	#	H	TIP4P
504	31	2	-1.1128	13.58559700	11.83539800	70.14478700	#	O	TIP4P
505	31	3	0.5564	14.12755900	11.80560900	70.93321700	#	H	TIP4P
506	31	3	0.5564	13.55588200	12.76259700	69.90888700	#	H	TIP4P
507	32	2	-1.1128	15.93021100	14.00748600	16.81969600	#	O	TIP4P
508	32	3	0.5564	16.58128500	13.92055300	17.51595600	#	H	TIP4P
509	32	3	0.5564	16.16737700	14.81806400	16.36920000	#	H	TIP4P
510	33	2	-1.1128	30.84265400	16.87982100	44.91467000	#	O	TIP4P
511	33	3	0.5564	31.11880600	16.74456500	44.00820600	#	H	TIP4P
512	33	3	0.5564	29.91593000	17.11089900	44.85128600	#	H	TIP4P
513	34	2	-1.1128	22.45856600	12.48111200	70.35076000	#	O	TIP4P
514	34	3	0.5564	22.91728600	13.30983700	70.21284100	#	H	TIP4P
515	34	3	0.5564	23.10779800	11.80968100	70.14121300	#	H	TIP4P
516	35	2	-1.1128	30.66958000	32.34710100	43.05787400	#	O	TIP4P
517	35	3	0.5564	30.66918700	33.30427900	43.05137100	#	H	TIP4P
518	35	3	0.5564	31.16452800	32.11264500	43.84291400	#	H	TIP4P
519	36	2	-1.1128	24.42609000	12.12456400	54.75781400	#	O	TIP4P
520	36	3	0.5564	25.12771200	11.49914100	54.57669200	#	H	TIP4P
521	36	3	0.5564	24.47702500	12.27567100	55.70163800	#	H	TIP4P
522	37	2	-1.1128	26.92962900	2.53743300	33.94220200	#	O	TIP4P
523	37	3	0.5564	26.01203600	2.80067400	34.01262700	#	H	TIP4P
524	37	3	0.5564	26.91468200	1.58568700	34.04313400	#	H	TIP4P
525	38	2	-1.1128	29.03060800	6.80319600	48.37838400	#	O	TIP4P
526	38	3	0.5564	28.73996100	7.55239200	47.85832500	#	H	TIP4P
527	38	3	0.5564	28.85613700	7.05784200	49.28444500	#	H	TIP4P
528	39	2	-1.1128	26.04035700	30.56126100	33.76156400	#	O	TIP4P
529	39	3	0.5564	25.61906700	30.58837000	34.62064000	#	H	TIP4P
530	39	3	0.5564	25.34496900	30.29147200	33.16166200	#	H	TIP4P
531	40	2	-1.1128	7.21077700	9.01780000	31.44648200	#	O	TIP4P
532	40	3	0.5564	6.25418300	9.01965000	31.41247700	#	H	TIP4P
533	40	3	0.5564	7.45356700	9.94338000	31.42227500	#	H	TIP4P
534	41	2	-1.1128	5.97699500	13.43206100	40.14287200	#	O	TIP4P
535	41	3	0.5564	5.17262800	12.91331200	40.15405700	#	H	TIP4P
536	41	3	0.5564	5.72891700	14.25027500	39.71250800	#	H	TIP4P
537	42	2	-1.1128	4.81073300	1.49991700	16.47860600	#	O	TIP4P
538	42	3	0.5564	4.54756700	2.15441600	17.12560500	#	H	TIP4P
539	42	3	0.5564	4.26028900	1.68080000	15.71668500	#	H	TIP4P
540	43	2	-1.1128	16.79036000	1.48396600	19.90183400	#	O	TIP4P
541	43	3	0.5564	16.06668100	1.49461600	19.27541000	#	H	TIP4P
542	43	3	0.5564	16.36562100	1.49977200	20.75949300	#	H	TIP4P
543	44	2	-1.1128	30.62319200	33.27998400	53.74436000	#	O	TIP4P
544	44	3	0.5564	31.15650800	33.32352700	52.95069100	#	H	TIP4P
545	44	3	0.5564	31.14992300	32.77001500	54.35976000	#	H	TIP4P
546	45	2	-1.1128	4.59173100	19.30671100	41.84726400	#	O	TIP4P
547	45	3	0.5564	4.07205500	20.08939100	41.66401500	#	H	TIP4P
548	45	3	0.5564	3.95518500	18.66370100	42.15964100	#	H	TIP4P
549	46	2	-1.1128	22.50954100	8.82255300	60.86228500	#	O	TIP4P
550	46	3	0.5564	23.17313600	9.45334000	61.14153600	#	H	TIP4P
551	46	3	0.5564	23.00038800	8.15280500	60.38611500	#	H	TIP4P
552	47	2	-1.1128	17.29578500	10.84159700	61.36968200	#	O	TIP4P
553	47	3	0.5564	16.41073000	11.19560200	61.45679800	#	H	TIP4P
554	47	3	0.5564	17.35892000	10.57633200	60.45214200	#	H	TIP4P
555	48	2	-1.1128	8.75357000	13.86097600	29.63958400	#	O	TIP4P
556	48	3	0.5564	9.59862800	14.31003000	29.61815500	#	H	TIP4P
557	48	3	0.5564	8.95935700	12.97661800	29.94255700	#	H	TIP4P
558	49	2	-1.1128	2.86862900	30.84790700	22.27286300	#	O	TIP4P
559	49	3	0.5564	3.64143000	31.35230700	22.52701000	#	H	TIP4P
560	49	3	0.5564	3.20138900	29.96565600	22.10813600	#	H	TIP4P
561	50	2	-1.1128	16.67126500	8.71007900	63.29885400	#	O	TIP4P
562	50	3	0.5564	17.39688700	8.46804100	63.87428600	#	H	TIP4P
563	50	3	0.5564	16.90715200	8.34194000	62.44734800	#	H	TIP4P
564	51	2	-1.1128	29.50056700	29.72242300	22.59319200	#	O	TIP4P
565	51	3	0.5564	29.41843900	29.14166900	23.34963900	#	H	TIP4P
566	51	3	0.5564	28.59833600	29.89513400	22.32415500	#	H	TIP4P
567	52	2	-1.1128	16.11558300	22.85487600	13.11098700	#	O	TIP4P
568	52	3	0.5564	16.80769000	23.51541000	13.08075100	#	H	TIP4P
569	52	3	0.5564	16.42067300	22.16069000	12.52681500	#	H	TIP4P
570	53	2	-1.1128	23.90448600	7.10206800	45.19566900	#	O	TIP4P
571	53	3	0.5564	23.61111800	7.51908000	44.38556500	#	H	TIP4P
572	53	3	0.5564	24.71972700	6.66092000	44.95691600	#	H	TIP4P
573	54	2	-1.1128	15.24700500	26.95202300	51.51208100	#	O	TIP4P
574	54	3	0.5564	14.37274600	27.03844900	51.89212500	#	H	TIP4P
575	54	3	0.5564	15.64338000	27.81621500	51.62293900	#	H	TIP4P
576	55	2	-1.1128	25.78958900	12.44427500	45.08008500	#	O	TIP4P
577	55	3	0.5564	26.28338600	13.14456700	45.50668500	#	H	TIP4P
578	55	3	0.5564	24.88305200	12.75148800	45.08662900	#	H	TIP4P
579	56	2	-1.1128	7.23227800	10.45870600	19.47808100	#	O	TIP4P
580	56	3	0.5564	7.51058100	9.55841700	19.30997200	#	H	TIP4P
581	56	3	0.5564	7.60545700	10.96407700	18.75588400	#	H	TIP4P
582	57	2	-1.1128	31.16028200	17.19907900	22.39418300	#	O	TIP4P
583	57	3	0.5564	30.51285200	16.63795800	22.82104300	#	H	TIP4P
584	57	3	0.5564	30.65341300	17.93914500	22.06008900	#	H	TIP4P
585	58	2	-1.1128	13.40524700	5.33455300	60.84873400	#	O	TIP4P
586	58	3	0.5564	12.95918200	4.50428000	60.68168800	#	H	TIP4P
587	58	3	0.5564	12.85191900	5.77932400	61.49079200	#	H	TIP4P
588	59	2	-1.1128	27.28055600	13.60420000	34.81690300	#	O	TIP4P
589	59	3	0.5564	26.75604100	13.31765200	35.56457000	#	H	TIP4P
590	59	3	0.5564	26.83507500	14.38908700	34.49795200	#	H	TIP4P
591	60	2	-1.1128	17.89918300	9.24696300	32.58169600	#	O	TIP4P
592	60	3	0.5564	17.58748900	10.15122200	32.54435500	#	H	TIP4P
593	60	3	0.5564	18.81882900	9.29917500	32.32139800	#	H	TIP4P
594	61	2	-1.1128	2.76175500	10.95510900	48.56960100	#	O	TIP4P
595	61	3	0.5564	3.51376200	11.48495600	48.30506500	#	H	TIP4P
596	61	3	0.5564	2.42930800	11.38642100	49.35679900	#	H	TIP4P
597	62	2	-1.1128	30.90245100	29.64713800	63.66317800	#	O	TIP4P
598	62	3	0.5564	30.71999600	29.78195000	62.73324900	#	H	TIP4P
599	62	3	0.5564	31.15015600	28.72481200	63.72789300	#	H	TIP4P
600	63	2	-1.1128	21.58399300	33.30876200	17.35375600	#	O	TIP4P
601	63	3	0.5564	20.78906200	32.77674800	17.31801900	#	H	TIP4P
602	63	3	0.5564	22.29377900	32.67361200	17.44873100	#	H	TIP4P
603	64	2	-1.1128	8.79620200	29.90667600	35.76450300	#	O	TIP4P
604	64	3	0.5564	9.01225800	30.74817300	36.16629300	#	H	TIP4P
605	64	3	0.5564	9.60988000	29.40435200	35.80728300	#	H	TIP4P
606	65	2	-1.1128	2.88156200	7.11553200	23.65140300	#	O	TIP4P
607	65	3	0.5564	3.50758600	7.83962500	23.64756800	#	H	TIP4P
608	65	3	0.5564	2.12597900	7.45407900	24.13172700	#	H	TIP4P
609	66	2	-1.1128	20.67964300	1.47816400	67.12647300	#	O	TIP4P
610	66	3	0.5564	19.74770600	1.49957000	66.90906400	#	H	TIP4P
611	66	3	0.5564	20.96633300	2.38766400	67.04371300	#	H	TIP4P
612	67	2	-1.1128	12.34564600	20.42999600	63.95708600	#	O	TIP4P
613	67	3	0.5564	13.03913200	19.98336800	64.44271100	#	H	TIP4P
614	67	3	0.5564	12.60415300	21.35161200	63.96250800	#	H	TIP4P
615	68	2	-1.1128	6.85192700	9.53043100	66.58362900	#	O	TIP4P
616	68	3	0.5564	7.36886100	10.06447000	67.18680000	#	H	TIP4P
617	68	3	0.5564	6.45089600	8.86159100	67.13865900	#	H	TIP4P
618	69	2	-1.1128	28.95317600	23.32508500	61.32346300	#	O	TIP4P
619	69	3	0.5564	28.30885700	23.78043800	61.86543900	#	H	TIP4P
620	69	3	0.5564	28.63436900	23.43565200	60.42771200	#	H	TIP4P
621	70	2	-1.1128	10.79749800	8.14005800	58.97241900	#	O	TIP4P
622	70	3	0.5564	11.71919600	7.93353400	59.12751200	#	H	TIP4P
623	70	3	0.5564	10.77594200	9.09335500	58.88880200	#	H	TIP4P
624	71	2	-1.1128	31.17123700	12.25888500	40.70326600	#	O	TIP4P
625	71	3	0.5564	31.15568500	12.89719800	39.99014200	#	H	TIP4P
626	71	3	0.5564	31.15150700	11.40837900	40.26453900	#	H	TIP4P
627	72	2	-1.1128	1.60648000	12.95593600	46.49581300	#	O	TIP4P
628	72	3	0.5564	1.46385200	13.09606100	47.43189700	#	H	TIP4P
629	72	3	0.5564	1.49062300	12.01363900	46.37381400	#	H	TIP4P
630	73	2	-1.1128	30.32038800	1.47562900	60.55447500	#	O	TIP4P
631	73	3	0.5564	31.17804300	1.48454900	60.97942300	#	H	TIP4P
632	73	3	0.5564	30.51557000	1.52830200	59.61886800	#	H	TIP4P
633	74	2	-1.1128	24.00247900	14.90726300	58.26787100	#	O	TIP4P
634	74	3	0.5564	23.64634800	14.20863100	57.71894900	#	H	TIP4P
635	74	3	0.5564	23.23459600	15.39982600	58.55764400	#	H	TIP4P
636	75	2	-1.1128	11.11867500	1.54183900	59.80681900	#	O	TIP4P
637	75	3	0.5564	11.77459200	1.49208800	59.11145700	#	H	TIP4P
638	75	3	0.5564	11.25041800	2.40469100	60.19970900	#	H	TIP4P
639	76	2	-1.1128	31.16489600	28.92386500	41.65540400	#	O	TIP4P
640	76	3	0.5564	30.57834300	28.16743900	41.65277200	#	H	TIP4P
641	76	3	0.5564	30.57995900	29.68120500	41.63267200	#	H	TIP4P
642	77	2	-1.1128	14.00275500	30.49478300	52.35681000	#	O	TIP4P
643	77	3	0.5564	14.64391000	30.37784200	51.65575600	#	H	TIP4P
644	77	3	0.5564	13.87159800	29.61534200	52.71122800	#	H	TIP4P
645	78	2	-1.1128	18.12032700	12.10763700	21.87806300	#	O	TIP4P
646	78	3	0.5564	18.65593200	12.86991200	22.09782700	#	H	TIP4P
647	78	3	0.5564	17.37457500	12.46850000	21.39862200	#	H	TIP4P
648	79	2	-1.1128	2.34232300	28.06887400	23.90420200	#	O	TIP4P
649	79	3	0.5564	2.20480100	27.57456600	24.71227300	#	H	TIP4P
650	79	3	0.5564	1.49934000	28.48892400	23.73341200	#	H	TIP4P
651	80	2	-1.1128	31.15094500	14.67778000	50.17577400	#	O	TIP4P
652	80	3	0.5564	30.23101300	14.67806100	49.91128000	#	H	TIP4P
653	80	3	0.5564	31.15320600	15.09581200	51.03686400	#	H	TIP4P
654	81	2	-1.1128	6.86078300	8.01215100	47.08374200	#	O	TIP4P
655	81	3	0.5564	6.97054600	7.88127900	48.02557900	#	H	TIP4P
656	81	3	0.5564	7.23680900	8.87628700	46.91609400	#	H	TIP4P
657	82	2	-1.1128	20.85069800	3.61920100	34.04672500	#	O	TIP4P
658	82	3	0.5564	20.08717900	4.19600000	34.02277200	#	H	TIP4P
659	82	3	0.5564	21.59563100	4.21131800	34.15018700	#	H	TIP4P
660	83	2	-1.1128	17.15342200	26.20000400	12.59501500	#	O	TIP4P
661	83	3	0.5564	17.23589800	27.02794400	12.12178700	#	H	TIP4P
662	83	3	0.5564	16.25860600	26.20593800	12.93486800	#	H	TIP4P
663	84	2	-1.1128	8.18495000	2.25760200	21.96616500	#	O	TIP4P
664	84	3	0.5564	8.37968300	1.49513200	22.51109600	#	H	TIP4P
665	84	3	0.5564	8.33927300	3.00822200	22.53973700	#	H	TIP4P
666	85	2	-1.1128	27.59080300	7.08496700	20.36743300	#	O	TIP4P
667	85	3	0.5564	27.84738400	6.36008900	20.93747700	#	H	TIP4P
668	85	3	0.5564	28.29573800	7.14431500	19.72262600	#	H	TIP4P
669	86	2	-1.1128	2.10649300	23.68925800	30.61460700	#	O	TIP4P
670	86	3	0.5564	1.49819900	23.64355900	31.35225300	#	H	TIP4P
671	86	3	0.5564	2.18635800	22.78433900	30.31298700	#	H	TIP4P
672	87	2	-1.1128	24.63285100	21.54911800	67.82193100	#	O	TIP4P
673	87	3	0.5564	24.86728600	20.87985800	67.17899800	#	H	TIP4P
674	87	3	0.5564	24.46123200	22.33322300	67.30043400	#	H	TIP4P
675	88	2	-1.1128	30.80854700	24.04578300	19.63587700	#	O	TIP4P
676	88	3	0.5564	31.15502200	24.59641900	18.93374700	#	H	TIP4P
677	88	3	0.5564	29.87274900	24.24582700	19.65814700	#	H	TIP4P
678	89	2	-1.1128	30.56866300	28.59162700	35.04432300	#	O	TIP4P
679	89	3	0.5564	31.14736900	28.42545000	34.30020200	#	H	TIP4P
680	89	3	0.5564	31.15313300	28.61684300	35.80194400	#	H	TIP4P
681	90	2	-1.1128	19.89690600	23.84310400	46.44744000	#	O	TIP4P
682	90	3	0.5564	19.25576500	23.98285900	45.75056300	#	H	TIP4P
683	90	3	0.5564	19.38529500	23.49586200	47.17813000	#	H	TIP4P
684	91	2	-1.1128	25.70210900	33.30862600	35.13954800	#	O	TIP4P
685	91	3	0.5564	24.75238300	33.25858400	35.24793700	#	H	TIP4P
686	91	3	0.5564	25.83590900	33.30683100	34.19174700	#	H	TIP4P
687	92	2	-1.1128	30.43886200	22.89013600	12.37569500	#	O	TIP4P
688	92	3	0.5564	30.21514200	23.63862700	12.92881600	#	H	TIP4P
689	92	3	0.5564	31.15050100	22.45142700	12.84188800	#	H	TIP4P
690	93	2	-1.1128	11.54640000	21.07573800	61.16859600	#	O	TIP4P
691	93	3	0.5564	10.73535100	20.60681100	61.36490900	#	H	TIP4P
692	93	3	0.5564	12.22777300	20.40478300	61.21078700	#	H	TIP4P
693	94	2	-1.1128	17.14346200	13.45289600	24.91447700	#	O	TIP4P
694	94	3	0.5564	16.24094900	13.46426700	25.23318200	#	H	TIP4P
695	94	3	0.5564	17.21604800	12.63140500	24.42856000	#	H	TIP4P
696	95	2	-1.1128	11.83450300	14.76029400	37.23163300	#	O	TIP4P
697	95	3	0.5564	11.38123900	15.20539000	37.94764500	#	H	TIP4P
698	95	3	0.5564	12.73913900	15.06709900	37.29275700	#	H	TIP4P
699	96	2	-1.1128	20.16808200	5.41413600	17.37700000	#	O	TIP4P
700	96	3	0.5564	20.57475600	4.55216000	17.46557400	#	H	TIP4P
701	96	3	0.5564	19.32408900	5.23964900	16.96051300	#	H	TIP4P
702	97	2	-1.1128	31.15193700	17.08334200	36.43465000	#	O	TIP4P
703	97	3	0.5564	30.94093200	17.45803400	35.57948000	#	H	TIP4P
704	97	3	0.5564	30.64924300	17.60844900	37.05738000	#	H	TIP4P
705	98	2	-1.1128	31.12506200	14.06374400	16.57952200	#	O	TIP4P
706	98	3	0.5564	31.15046200	13.35695100	15.93451800	#	H	TIP4P
707	98	3	0.5564	31.15095600	13.61733900	17.42585700	#	H	TIP4P
708	99	2	-1.1128	29.81138400	12.49230800	44.09785900	#	O	TIP4P
709	99	3	0.5564	29.18043700	13.21149800	44.12793800	#	H	TIP4P
710	99	3	0.5564	30.48202700	12.78702500	43.48173300	#	H	TIP4P
711	100	2	-1.1128	24.16441500	25.62185800	66.73583300	#	O	TIP4P
712	100	3	0.5564	24.88456600	24.99129200	66.73704800	#	H	TIP4P
713	100	3	0.5564	23.37395600	25.08347400	66.77517300	#	H	TIP4P
714	101	2	-1.1128	10.55485900	19.50486800	66.88337500	#	O	TIP4P
715	101	3	0.5564	11.34244300	19.99473600	66.64678900	#	H	TIP4P
716	101	3	0.5564	10.88171000	18.73630100	67.35103300	#	H	TIP4P
717	102	2	-1.1128	27.76655500	26.06762400	52.05948700	#	O	TIP4P
718	102	3	0.5564	27.14140900	26.27413100	52.75431100	#	H	TIP4P
719	102	3	0.5564	27.76161600	25.11179500	52.00851400	#	H	TIP4P
720	103	2	-1.1128	15.35423400	24.80813400	28.42051000	#	O	TIP4P
721	103	3	0.5564	15.30720000	25.73448800	28.65691600	#	H	TIP4P
722	103	3	0.5564	14.50812500	24.44901900	28.68765800	#	H	TIP4P
723	104	2	-1.1128	7.82732100	6.15690100	67.95378600	#	O	TIP4P
724	104	3	0.5564	8.32603700	6.91870500	67.65854400	#	H	TIP4P
725	104	3	0.5564	8.18655100	5.95502200	68.81774800	#	H	TIP4P
726	105	2	-1.1128	10.46137000	10.47586300	51.88316700	#	O	TIP4P
727	105	3	0.5564	10.01670300	11.30928300	51.72851900	#	H	TIP4P
728	105	3	0.5564	9.75722400	9.82769600	51.90017400	#	H	TIP4P
729	106	2	-1.1128	23.62868100	9.94804900	16.26769600	#	O	TIP4P
730	106	3	0.5564	24.08127200	10.28813600	15.49585800	#	H	TIP4P
731	106	3	0.5564	22.84505800	10.49220100	16.34558000	#	H	TIP4P
732	107	2	-1.1128	29.57104300	16.09360300	17.67265600	#	O	TIP4P
733	107	3	0.5564	29.03386800	15.32094200	17.84778600	#	H	TIP4P
734	107	3	0.5564	29.16624700	16.78964700	18.19024200	#	H	TIP4P
735	108	2	-1.1128	7.42618400	4.38696500	71.73966500	#	O	TIP4P
736	108	3	0.5564	6.59975600	3.92488800	71.88014200	#	H	TIP4P
737	108	3	0.5564	7.68253300	4.15431600	70.84725700	#	H	TIP4P
738	109	2	-1.1128	25.34022900	18.92542500	71.41244300	#	O	TIP4P
739	109	3	0.5564	24.79255600	18.42069100	72.01371500	#	H	TIP4P
740	109	3	0.5564	24.92052900	19.78462600	71.36935700	#	H	TIP4P
741	110	2	-1.1128	6.45600900	16.39843800	32.44641400	#	O	TIP4P
742	110	3	0.5564	5.80152200	16.96983200	32.04468400	#	H	TIP4P
743	110	3	0.5564	6.94111800	16.97030300	33.04128500	#	H	TIP4P
744	111	2	-1.1128	16.01408800	5.92639200	71.68340500	#	O	TIP4P
745	111	3	0.5564	16.18271100	5.17158600	71.11943300	#	H	TIP4P
746	111	3	0.5564	16.87569500	6.17078500	72.02124700	#	H	TIP4P
747	112	2	-1.1128	15.77984900	4.12004400	68.03517000	#	O	TIP4P
748	112	3	0.5564	16.23546900	3.72772400	68.77997000	#	H	TIP4P
749	112	3	0.5564	14.85071000	4.00787300	68.23604500	#	H	TIP4P
750	113	2	-1.1128	26.95516600	7.21438300	67.45850000	#	O	TIP4P
751	113	3	0.5564	26.38584300	7.98323500	67.42736400	#	H	TIP4P
752	113	3	0.5564	26.53138500	6.62715000	68.08443700	#	H	TIP4P
753	114	2	-1.1128	1.99352900	21.65138900	54.88809200	#	O	TIP4P
754	114	3	0.5564	1.48097100	22.29705800	55.37453600	#	H	TIP4P
755	114	3	0.5564	2.73972300	21.45994000	55.45622400	#	H	TIP4P
756	115	2	-1.1128	18.21878100	6.05344000	68.75810400	#	O	TIP4P
757	115	3	0.5564	18.37012600	5.35018200	69.38957500	#	H	TIP4P
758	115	3	0.5564	17.29042200	6.26613800	68.85370300	#	H	TIP4P
759	116	2	-1.1128	2.78183100	7.66727000	43.05129700	#	O	TIP4P
760	116	3	0.5564	1.96503800	8.16434800	43.09596600	#	H	TIP4P
761	116	3	0.5564	3.46859200	8.33403000	43.04669900	#	H	TIP4P
762	117	2	-1.1128	31.04809700	12.03499600	20.32427700	#	O	TIP4P
763	117	3	0.5564	31.14974700	11.72753500	19.42351800	#	H	TIP4P
764	117	3	0.5564	31.15330300	11.24851000	20.85962900	#	H	TIP4P
765	118	2	-1.1128	28.33848900	28.90875600	40.23920200	#	O	TIP4P
766	118	3	0.5564	28.50269100	28.04827100	39.85340800	#	H	TIP4P
767	118	3	0.5564	27.74719000	29.33961000	39.62198100	#	H	TIP4P
768	119	2	-1.1128	12.36907600	6.79404400	44.62840000	#	O	TIP4P
769	119	3	0.5564	12.41175400	5.84396100	44.51998900	#	H	TIP4P
770	119	3	0.5564	11.85392200	6.92179300	45.42497300	#	H	TIP4P
771	120	2	-1.1128	19.51595000	20.37534000	51.98918300	#	O	TIP4P
772	120	3	0.5564	19.73174600	21.30268700	51.89073100	#	H	TIP4P
773	120	3	0.5564	18.74256400	20.36746800	52.55313700	#	H	TIP4P
774	121	2	-1.1128	8.39343600	33.32470700	55.15944900	#	O	TIP4P
775	121	3	0.5564	8.22021700	32.87181300	55.98474500	#	H	TIP4P
776	121	3	0.5564	9.18120000	32.90365900	54.81538900	#	H	TIP4P
777	122	2	-1.1128	16.98105900	1.49553800	58.35874500	#	O	TIP4P
778	122	3	0.5564	17.85672800	1.46692900	58.74425400	#	H	TIP4P
779	122	3	0.5564	17.13475100	1.49830700	57.41396900	#	H	TIP4P
780	123	2	-1.1128	7.38619900	9.28952400	63.89754000	#	O	TIP4P
781	123	3	0.5564	7.13449500	9.13733900	62.98665200	#	H	TIP4P
782	123	3	0.5564	7.40378300	10.24249800	63.98565300	#	H	TIP4P
783	124	2	-1.1128	1.82416500	7.82061000	13.99475200	#	O	TIP4P
784	124	3	0.5564	1.69625600	7.08761800	13.39259400	#	H	TIP4P
785	124	3	0.5564	1.49949700	7.49954700	14.83602600	#	H	TIP4P
786	125	2	-1.1128	11.16498700	11.82819200	49.20004300	#	O	TIP4P
787	125	3	0.5564	10.65539300	11.91062100	48.39397200	#	H	TIP4P
788	125	3	0.5564	11.45660000	10.91652400	49.20744200	#	H	TIP4P
789	126	2	-1.1128	7.75566700	26.15705700	33.15869400	#	O	TIP4P
790	126	3	0.5564	6.81890500	25.96043100	33.16548300	#	H	TIP4P
791	126	3	0.5564	7.80015200	27.11134500	33.09881200	#	H	TIP4P
792	127	2	-1.1128	17.72395000	22.15860600	69.54995200	#	O	TIP4P
793	127	3	0.5564	18.03259100	23.06450100	69.53186500	#	H	TIP4P
794	127	3	0.5564	18.50935400	21.63431300	69.39345600	#	H	TIP4P
795	128	2	-1.1128	6.14224200	19.67939800	38.72860500	#	O	TIP4P
796	128	3	0.5564	6.96580800	20.15467800	38.61870100	#	H	TIP4P
797	128	3	0.5564	5.70150200	20.12682300	39.45095600	#	H	TIP4P
798	129	2	-1.1128	16.92926600	6.17683700	18.14021500	#	O	TIP4P
799	129	3	0.5564	16.87186600	7.04155000	17.73375600	#	H	TIP4P
800	129	3	0.5564	16.04324800	6.00130300	18.45706300	#	H	TIP4P
801	130	2	-1.1128	10.96256300	12.01853900	69.26779900	#	O	TIP4P
802	130	3	0.5564	11.38555300	11.61901000	68.50774200	#	H	TIP4P
803	130	3	0.5564	10.94490600	12.95453000	69.06819800	#	H	TIP4P
804	131	2	-1.1128	19.44014300	27.28078200	13.74617700	#	O	TIP4P
805	131	3	0.5564	20.09249700	27.98124500	13.74183400	#	H	TIP4P
806	131	3	0.5564	18.75808200	27.59174200	14.34143200	#	H	TIP4P
807	132	2	-1.1128	30.56861500	19.56291200	19.25915600	#	O	TIP4P
808	132	3	0.5564	30.96214000	18.70894000	19.43832700	#	H	TIP4P
809	132	3	0.5564	29.66400500	19.36431600	19.01734900	#	H	TIP4P
810	133	2	-1.1128	26.18883800	30.82919300	37.82488800	#	O	TIP4P
811	133	3	0.5564	25.92009000	31.16574300	38.67972100	#	H	TIP4P
812	133	3	0.5564	25.91789700	31.50594600	37.20454300	#	H	TIP4P
813	134	2	-1.1128	12.38235900	15.82699100	33.04424800	#	O	TIP4P
814	134	3	0.5564	13.30555800	15.60034800	33.15635100	#	H	TIP4P
815	134	3	0.5564	11.95485600	15.48824300	33.83083700	#	H	TIP4P
816	135	2	-1.1128	16.05069500	17.40706100	43.28131800	#	O	TIP4P
817	135	3	0.5564	16.52123800	18.04721800	42.74744600	#	H	TIP4P
818	135	3	0.5564	15.56393200	17.93431400	43.91479800	#	H	TIP4P
819	136	2	-1.1128	15.65028000	24.21884400	31.17850800	#	O	TIP4P
820	136	3	0.5564	16.39063800	23.78575300	30.75361400	#	H	TIP4P
821	136	3	0.5564	14.97824500	23.54001500	31.24008300	#	H	TIP4P
822	137	2	-1.1128	1.47615800	15.18836200	43.67313900	#	O	TIP4P
823	137	3	0.5564	1.45296400	14.35476400	43.20323700	#	H	TIP4P
824	137	3	0.5564	1.53894900	14.94199200	44.59595500	#	H	TIP4P
825	138	2	-1.1128	12.95410900	14.87469700	43.02408200	#	O	TIP4P
826	138	3	0.5564	12.36857100	14.34506800	42.48290700	#	H	TIP4P
827	138	3	0.5564	13.83262600	14.65143400	42.71652400	#	H	TIP4P
828	139	2	-1.1128	11.91730500	22.50028100	50.26196100	#	O	TIP4P
829	139	3	0.5564	11.02488500	22.20900600	50.44898500	#	H	TIP4P
830	139	3	0.5564	12.19285400	22.95556000	51.05759000	#	H	TIP4P
831	140	2	-1.1128	13.58844400	12.44957600	48.06010800	#	O	TIP4P
832	140	3	0.5564	13.72398500	13.32385500	47.69473800	#	H	TIP4P
833	140	3	0.5564	13.19669000	11.94859400	47.34472200	#	H	TIP4P
834	141	2	-1.1128	8.85850700	21.31353900	45.90897600	#	O	TIP4P
835	141	3	0.5564	9.15263900	21.82250400	45.15354700	#	H	TIP4P
836	141	3	0.5564	9.06547400	21.86378800	46.66437200	#	H	TIP4P
837	142	2	-1.1128	14.55049300	16.02867000	50.04095600	#	O	TIP4P
838	142	3	0.5564	14.43770300	15.44698500	49.28919000	#	H	TIP4P
839	142	3	0.5564	14.90024500	16.83784600	49.66794400	#	H	TIP4P
840	143	2	-1.1128	5.10745800	7.80336100	40.47604600	#	O	TIP4P
841	143	3	0.5564	4.18736000	7.53987100	40.46101400	#	H	TIP4P
842	143	3	0.5564	5.08283000	8.75611100	40.56488800	#	H	TIP4P
843	144	2	-1.1128	11.95148600	5.65149900	28.22629500	#	O	TIP4P
844	144	3	0.5564	11.63319700	4.93115600	27.68220800	#	H	TIP4P
845	144	3	0.5564	12.88069900	5.72439900	28.00839700	#	H	TIP4P
846	145	2	-1.1128	31.23713800	16.26585000	58.94517500	#	O	TIP4P
847	145	3	0.5564	31.10137800	16.23528500	57.99814500	#	H	TIP4P
848	145	3	0.5564	31.16384100	17.19379200	59.16829800	#	H	TIP4P
849	146	2	-1.1128	22.34353600	24.54158400	53.44110900	#	O	TIP4P
850	146	3	0.5564	21.94549800	23.70196400	53.21125000	#	H	TIP4P
851	146	3	0.5564	21.64892600	25.02078900	53.89289400	#	H	TIP4P
852	147	2	-1.1128	6.79581700	20.09390500	55.40561800	#	O	TIP4P
853	147	3	0.5564	6.96192600	20.32409600	54.49147900	#	H	TIP4P
854	147	3	0.5564	6.06259800	20.65222500	55.66426800	#	H	TIP4P
855	148	2	-1.1128	12.69943000	25.29873800	49.71115500	#	O	TIP4P
856	148	3	0.5564	12.21090600	25.63962100	50.46040400	#	H	TIP4P
857	148	3	0.5564	13.57228300	25.11382300	50.05780500	#	H	TIP4P
858	149	2	-1.1128	13.10310600	4.68900800	22.26520300	#	O	TIP4P
859	149	3	0.5564	13.95402300	5.06150600	22.03408300	#	H	TIP4P
860	149	3	0.5564	12.96523100	4.95189400	23.17521000	#	H	TIP4P
861	150	2	-1.1128	17.51120300	9.00469700	47.46408100	#	O	TIP4P
862	150	3	0.5564	16.86376900	8.32486600	47.65087000	#	H	TIP4P
863	150	3	0.5564	17.17496700	9.44895700	46.68574300	#	H	TIP4P
864	151	2	-1.1128	23.48337100	28.19779100	27.77578500	#	O	TIP4P
865	151	3	0.5564	23.41056400	28.73181900	28.56682600	#	H	TIP4P
866	151	3	0.5564	22.61765700	27.80271100	27.67242600	#	H	TIP4P
867	152	2	-1.1128	12.82231300	32.05339600	28.75807200	#	O	TIP4P
868	152	3	0.5564	13.13047900	31.52126800	28.02451600	#	H	TIP4P
869	152	3	0.5564	12.59351000	32.89533800	28.36435400	#	H	TIP4P
870	153	2	-1.1128	25.49905300	11.95946400	38.24675300	#	O	TIP4P
871	153	3	0.5564	26.41275800	12.22979800	38.15568600	#	H	TIP4P
872	153	3	0.5564	25.15198100	11.98238000	37.35498600	#	H	TIP4P
873	154	2	-1.1128	20.99323700	30.56087700	64.74830800	#	O	TIP4P
874	154	3	0.5564	20.75922700	30.85483400	63.86793200	#	H	TIP4P
875	154	3	0.5564	20.22510100	30.07709600	65.05187800	#	H	TIP4P
876	155	2	-1.1128	16.25763300	14.84850200	32.00528400	#	O	TIP4P
877	155	3	0.5564	16.95455700	14.46723900	32.53929400	#	H	TIP4P
878	155	3	0.5564	16.71490900	15.25876300	31.27124300	#	H	TIP4P
879	156	2	-1.1128	2.36543300	5.30098700	50.46535300	#	O	TIP4P
880	156	3	0.5564	2.91506100	6.03280600	50.74567800	#	H	TIP4P
881	156	3	0.5564	1.47215800	5.58204500	50.66358700	#	H	TIP4P
882	157	2	-1.1128	12.93384100	28.53114900	15.14502100	#	O	TIP4P
883	157	3	0.5564	13.22730400	27.62491000	15.23905200	#	H	TIP4P
884	157	3	0.5564	13.74173800	29.04407800	15.12410100	#	H	TIP4P
885	158	2	-1.1128	4.24929400	5.42493300	42.43883100	#	O	TIP4P
886	158	3	0.5564	4.48869900	4.50905800	42.29709600	#	H	TIP4P
887	158	3	0.5564	5.08551800	5.88980600	42.46808600	#	H	TIP4P
888	159	2	-1.1128	8.11571600	30.43506300	43.73837800	#	O	TIP4P
889	159	3	0.5564	8.16043500	30.23535200	42.80331200	#	H	TIP4P
890	159	3	0.5564	7.21016500	30.70997100	43.88202300	#	H	TIP4P
891	160	2	-1.1128	1.49834000	9.09874800	67.41603800	#	O	TIP4P
892	160	3	0.5564	1.73617000	9.92031300	67.84580600	#	H	TIP4P
893	160	3	0.5564	1.67284500	9.25419200	66.48780500	#	H	TIP4P
894	161	2	-1.1128	11.21425800	26.43117500	45.22500800	#	O	TIP4P
895	161	3	0.5564	12.01095200	25.90059900	45.22473300	#	H	TIP4P
896	161	3	0.5564	10.50088400	25.79295300	45.22576200	#	H	TIP4P
897	162	2	-1.1128	28.82351900	19.75565600	38.81474400	#	O	TIP4P
898	162	3	0.5564	28.72179600	19.35756000	37.95021900	#	H	TIP4P
899	162	3	0.5564	29.24153800	19.07643700	39.34403800	#	H	TIP4P
900	163	2	-1.1128	30.64053100	29.23686800	44.35204600	#	O	TIP4P
901	163	3	0.5564	30.34692000	28.32653300	44.38829900	#	H	TIP4P
902	163	3	0.5564	29.83365600	29.74651400	44.27826100	#	H	TIP4P
903	164	2	-1.1128	5.50997000	18.36765100	60.73177000	#	O	TIP4P
904	164	3	0.5564	4.78185300	18.97975900	60.62499400	#	H	TIP4P
905	164	3	0.5564	6.27888600	18.92658400	60.84398800	#	H	TIP4P
906	165	2	-1.1128	14.77834800	19.18021700	71.39389100	#	O	TIP4P
907	165	3	0.5564	14.07990600	18.52975400	71.46674900	#	H	TIP4P
908	165	3	0.5564	14.48043900	19.91354600	71.93213800	#	H	TIP4P
909	166	2	-1.1128	29.55652400	33.21579600	32.27422800	#	O	TIP4P
910	166	3	0.5564	29.51882300	33.30595600	31.32203000	#	H	TIP4P
911	166	3	0.5564	30.48396200	33.31702800	32.48834000	#	H	TIP4P
912	167	2	-1.1128	9.10516400	27.86009500	46.38242200	#	O	TIP4P
913	167	3	0.5564	9.71242200	28.58615500	46.52492000	#	H	TIP4P
914	167	3	0.5564	8.43109600	27.97605700	47.05206200	#	H	TIP4P
915	168	2	-1.1128	3.94687900	26.59501900	16.44704500	#	O	TIP4P
916	168	3	0.5564	3.68941300	27.23463200	15.78308800	#	H	TIP4P
917	168	3	0.5564	3.25060000	26.63609300	17.10259100	#	H	TIP4P
918	169	2	-1.1128	15.96376200	23.30817300	9.84197700	#	O	TIP4P
919	169	3	0.5564	16.22129300	24.00977400	10.44002900	#	H	TIP4P
920	169	3	0.5564	16.70650600	22.70439800	9.84634800	#	H	TIP4P
921	170	2	-1.1128	7.53821600	4.97356000	56.39463000	#	O	TIP4P
922	170	3	0.5564	6.89404600	4.90075200	55.69037400	#	H	TIP4P
923	170	3	0.5564	7.31407300	4.26593000	56.99898900	#	H	TIP4P
924	171	2	-1.1128	19.68298000	5.98077200	62.95213200	#	O	TIP4P
925	171	3	0.5564	20.46267800	6.39542100	62.58285000	#	H	TIP4P
926	171	3	0.5564	18.95468100	6.51686600	62.63842000	#	H	TIP4P
927	172	2	-1.1128	21.10084400	15.06288800	72.01242500	#	O	TIP4P
928	172	3	0.5564	20.98797200	14.11239900	72.00445800	#	H	TIP4P
929	172	3	0.5564	22.04928400	15.19187900	72.01982100	#	H	TIP4P
930	173	2	-1.1128	28.51753500	25.22540000	14.55405000	#	O	TIP4P
931	173	3	0.5564	27.81276900	24.88208800	14.00480200	#	H	TIP4P
932	173	3	0.5564	28.26860100	26.13393800	14.72381800	#	H	TIP4P
933	174	2	-1.1128	4.20865600	18.21348800	47.31194400	#	O	TIP4P
934	174	3	0.5564	4.28407800	19.14243800	47.53010900	#	H	TIP4P
935	174	3	0.5564	5.09610800	17.95175100	47.06668000	#	H	TIP4P
936	175	2	-1.1128	28.61546600	9.95081100	62.23585800	#	O	TIP4P
937	175	3	0.5564	28.80649500	9.82633200	61.30621100	#	H	TIP4P
938	175	3	0.5564	28.78754100	9.09689500	62.63265600	#	H	TIP4P
939	176	2	-1.1128	29.25413700	13.60935500	52.41626000	#	O	TIP4P
940	176	3	0.5564	28.90007800	13.39630800	53.27967500	#	H	TIP4P
941	176	3	0.5564	28.49075900	13.61603500	51.83881700	#	H	TIP4P
942	177	2	-1.1128	3.34703100	25.95347900	11.75737700	#	O	TIP4P
943	177	3	0.5564	3.03907300	26.38166600	12.55615700	#	H	TIP4P
944	177	3	0.5564	2.62619400	25.37868600	11.50000500	#	H	TIP4P
945	178	2	-1.1128	5.30000800	4.66898600	66.05042900	#	O	TIP4P
946	178	3	0.5564	4.54276700	4.10466000	66.20648900	#	H	TIP4P
947	178	3	0.5564	6.04198000	4.17810400	66.40362000	#	H	TIP4P
948	179	2	-1.1128	29.35652800	25.49164200	43.05705600	#	O	TIP4P
949	179	3	0.5564	28.90473100	26.25771100	42.70315000	#	H	TIP4P
950	179	3	0.5564	30.22985800	25.81143200	43.28346600	#	H	TIP4P
951	180	2	-1.1128	21.18622900	29.08693900	37.77449700	#	O	TIP4P
952	180	3	0.5564	21.68642400	29.53039000	38.45961700	#	H	TIP4P
953	180	3	0.5564	20.27533100	29.15395000	38.06086300	#	H	TIP4P
954	181	2	-1.1128	2.53636600	1.69145500	32.01563300	#	O	TIP4P
955	181	3	0.5564	3.05157500	2.49343000	31.92830200	#	H	TIP4P
956	181	3	0.5564	1.62624400	1.98607100	31.98228800	#	H	TIP4P
957	182	2	-1.1128	5.24595300	1.50594900	44.96511400	#	O	TIP4P
958	182	3	0.5564	5.12919500	2.40280200	44.65166100	#	H	TIP4P
959	182	3	0.5564	4.82037900	1.49404100	45.82242100	#	H	TIP4P
960	183	2	-1.1128	21.55990200	8.43363800	14.62126300	#	O	TIP4P
961	183	3	0.5564	22.43072400	8.04208500	14.68899900	#	H	TIP4P
962	183	3	0.5564	20.95718200	7.69565700	14.71261300	#	H	TIP4P
963	184	2	-1.1128	4.92959100	27.36796100	25.30101200	#	O	TIP4P
964	184	3	0.5564	4.97579900	28.11141600	24.69987000	#	H	TIP4P
965	184	3	0.5564	4.56840600	27.73416300	26.10827500	#	H	TIP4P
966	185	2	-1.1128	7.90070200	33.31411300	52.36282300	#	O	TIP4P
967	185	3	0.5564	7.17484500	33.24211700	51.74300100	#	H	TIP4P
968	185	3	0.5564	8.68398800	33.33931900	51.81322500	#	H	TIP4P
969	186	2	-1.1128	23.03619100	12.74746400	42.78531400	#	O	TIP4P
970	186	3	0.5564	23.23599200	13.63871000	43.07165600	#	H	TIP4P
971	186	3	0.5564	22.96765000	12.81114300	41.83269700	#	H	TIP4P
972	187	2	-1.1128	7.63429400	14.67053000	45.47038400	#	O	TIP4P
973	187	3	0.5564	8.04284200	14.99009100	46.27487200	#	H	TIP4P
974	187	3	0.5564	8.30813400	14.77952000	44.79934700	#	H	TIP4P
975	188	2	-1.1128	22.16204900	19.86789100	70.06168000	#	O	TIP4P
976	188	3	0.5564	21.23949200	19.71462300	69.85765000	#	H	TIP4P
977	188	3	0.5564	22.19540700	19.89287800	71.01797200	#	H	TIP4P
978	189	2	-1.1128	5.60351800	5.91267700	38.54228300	#	O	TIP4P
979	189	3	0.5564	5.64234800	5.36401100	39.32566700	#	H	TIP4P
980	189	3	0.5564	4.68140900	5.89989500	38.28580100	#	H	TIP4P
981	190	2	-1.1128	5.61521100	31.10776100	19.46607400	#	O	TIP4P
982	190	3	0.5564	5.86517800	30.88406900	20.36257200	#	H	TIP4P
983	190	3	0.5564	4.76060100	31.52994100	19.55346600	#	H	TIP4P
984	191	2	-1.1128	16.08720800	19.15004800	11.09844600	#	O	TIP4P
985	191	3	0.5564	16.75551700	19.78083500	10.83067100	#	H	TIP4P
986	191	3	0.5564	15.73310500	19.50683900	11.91302700	#	H	TIP4P
987	192	2	-1.1128	2.28867000	24.90775400	25.37332300	#	O	TIP4P
988	192	3	0.5564	3.20535000	25.05778700	25.60445100	#	H	TIP4P
989	192	3	0.5564	2.25969500	23.99485700	25.08694500	#	H	TIP4P
990	193	2	-1.1128	30.12654000	21.15628900	55.69164300	#	O	TIP4P
991	193	3	0.5564	29.50776100	21.18688900	54.96198000	#	H	TIP4P
992	193	3	0.5564	30.98068900	21.31203800	55.28865200	#	H	TIP4P
993	194	2	-1.1128	28.25110500	20.74128200	41.31710300	#	O	TIP4P
994	194	3	0.5564	28.77800300	20.34940700	42.01355400	#	H	TIP4P
995	194	3	0.5564	27.51678800	20.13790800	41.20330800	#	H	TIP4P
996	195	2	-1.1128	30.46502800	14.05954000	25.20944300	#	O	TIP4P
997	195	3	0.5564	30.50940000	14.31240200	24.28731300	#	H	TIP4P
998	195	3	0.5564	31.15013200	13.39871500	25.31031500	#	H	TIP4P
999	196	2	-1.1128	21.40879600	1.48279300	27.11965600	#	O	TIP4P
1000	196	3	0.5564	21.94944900	1.50030800	27.90935200	#	H	TIP4P
1001	196	3	0.5564	20.50864300	1.50152500	27.44462600	#	H	TIP4P
1002	197	2	-1.1128	21.24036800	24.05945800	22.53356600	#	O	TIP4P
1003	197	3	0.5564	21.15373400	25.01143100	22.58331400	#	H	TIP4P
1004	197	3	0.5564	20.46098600	23.77208000	22.05795200	#	H	TIP4P
1005	198	2	-1.1128	6.11307100	31.04677600	50.14969100	#	O	TIP4P
1006	198	3	0.5564	7.00945500	31.00455900	49.81660800	#	H	TIP4P
1007	198	3	0.5564	6.09005700	30.40429100	50.85885600	#	H	TIP4P
1008	199	2	-1.1128	19.97156800	12.73010700	10.05534900	#	O	TIP4P
1009	199	3	0.5564	19.95661200	13.61494300	9.69055900	#	H	TIP4P
1010	199	3	0.5564	20.83784900	12.64969200	10.45450100	#	H	TIP4P
1011	200	2	-1.1128	15.85492600	33.31123100	51.79276200	#	O	TIP4P
1012	200	3	0.5564	14.92066300	33.10778100	51.83739500	#	H	TIP4P
1013	200	3	0.5564	16.28750500	32.52899100	52.13511600	#	H	TIP4P
1014	201	2	-1.1128	1.58175300	32.66925100	47.65311700	#	O	TIP4P
1015	201	3	0.5564	2.10983800	33.34991400	47.23591700	#	H	TIP4P
1016	201	3	0.5564	1.40135800	32.04236200	46.95261800	#	H	TIP4P
1017	202	2	-1.1128	24.05747500	21.19418600	58.37813800	#	O	TIP4P
1018	202	3	0.5564	23.55837500	21.31443100	59.18602000	#	H	TIP4P
1019	202	3	0.5564	24.16936400	22.07924900	58.03118600	#	H	TIP4P
1020	203	2	-1.1128	22.26915200	4.30953700	46.07537300	#	O	TIP4P
1021	203	3	0.5564	22.19070600	5.03983700	46.68916400	#	H	TIP4P
1022	203	3	0.5564	22.54084900	4.71586400	45.25238500	#	H	TIP4P
1023	204	2	-1.1128	2.34353100	8.60273400	70.18182500	#	O	TIP4P
1024	204	3	0.5564	2.97712000	8.00424800	69.78608300	#	H	TIP4P
1025	204	3	0.5564	1.85716700	8.06083600	70.80313600	#	H	TIP4P
1026	205	2	-1.1128	29.11816600	12.83665800	22.26653400	#	O	TIP4P
1027	205	3	0.5564	28.84919000	13.61010000	21.77088200	#	H	TIP4P
1028	205	3	0.5564	28.71629600	12.10237000	21.80225800	#	H	TIP4P
1029	206	2	-1.1128	19.74274300	10.82155600	29.11817200	#	O	TIP4P
1030	206	3	0.5564	18.90219100	10.71507500	29.56355400	#	H	TIP4P
1031	206	3	0.5564	19.97875000	11.73723300	29.26672400	#	H	TIP4P
1032	207	2	-1.1128	13.46897500	25.44550600	66.51943800	#	O	TIP4P
1033	207	3	0.5564	13.97062300	24.64179200	66.38295700	#	H	TIP4P
1034	207	3	0.5564	14.02116300	26.13771300	66.15588700	#	H	TIP4P
1035	208	2	-1.1128	19.52849100	21.16327700	39.21960400	#	O	TIP4P
1036	208	3	0.5564	19.06685900	21.76921000	38.63997300	#	H	TIP4P
1037	208	3	0.5564	20.17062300	20.73317100	38.65488500	#	H	TIP4P
1038	209	2	-1.1128	26.11975900	1.65472400	39.88420200	#	O	TIP4P
1039	209	3	0.5564	25.91668200	2.58705800	39.95998900	#	H	TIP4P
1040	209	3	0.5564	26.72646300	1.48196400	40.60412900	#	H	TIP4P
1041	210	2	-1.1128	13.18921900	30.37868900	61.09143900	#	O	TIP4P
1042	210	3	0.5564	12.34944600	30.09153200	60.73289500	#	H	TIP4P
1043	210	3	0.5564	13.73475100	30.54352600	60.32237800	#	H	TIP4P
1044	211	2	-1.1128	21.63612500	27.05109800	39.92515700	#	O	TIP4P
1045	211	3	0.5564	20.77292500	27.39781100	40.15078400	#	H	TIP4P
1046	211	3	0.5564	21.49498300	26.56637200	39.11192200	#	H	TIP4P
1047	212	2	-1.1128	10.56024900	32.12802000	15.32026500	#	O	TIP4P
1048	212	3	0.5564	11.22173400	32.81793500	15.26842900	#	H	TIP4P
1049	212	3	0.5564	11.06401800	31.31517500	15.36186500	#	H	TIP4P
1050	213	2	-1.1128	7.28361900	11.02143600	40.75797100	#	O	TIP4P
1051	213	3	0.5564	8.04471600	10.44606600	40.83486800	#	H	TIP4P
1052	213	3	0.5564	6.86355300	10.75569700	39.93995000	#	H	TIP4P
1053	214	2	-1.1128	9.61345200	31.92672600	27.95931100	#	O	TIP4P
1054	214	3	0.5564	10.07981400	31.86296600	28.79278200	#	H	TIP4P
1055	214	3	0.5564	9.80546200	32.80980400	27.64381600	#	H	TIP4P
1056	215	2	-1.1128	9.74384900	7.16219000	27.59048700	#	O	TIP4P
1057	215	3	0.5564	9.27637100	6.40553000	27.94427100	#	H	TIP4P
1058	215	3	0.5564	9.96811000	6.90860300	26.69514800	#	H	TIP4P
1059	216	2	-1.1128	28.26033300	5.13474300	45.22688000	#	O	TIP4P
1060	216	3	0.5564	28.72465300	5.59910700	45.92330300	#	H	TIP4P
1061	216	3	0.5564	27.82915300	5.82559800	44.72385500	#	H	TIP4P
1062	217	2	-1.1128	18.28184300	3.76710700	66.39692800	#	O	TIP4P
1063	217	3	0.5564	18.98275700	4.27671400	66.80344200	#	H	TIP4P
1064	217	3	0.5564	18.58166000	3.61948000	65.49996200	#	H	TIP4P
1065	218	2	-1.1128	30.29268100	8.30036400	40.36229300	#	O	TIP4P
1066	218	3	0.5564	31.18493700	8.64562800	40.33221500	#	H	TIP4P
1067	218	3	0.5564	29.74667900	9.06277100	40.55425300	#	H	TIP4P
1068	219	2	-1.1128	28.53121700	18.37779700	65.88005800	#	O	TIP4P
1069	219	3	0.5564	27.66677600	17.97846600	65.78254600	#	H	TIP4P
1070	219	3	0.5564	28.81848300	18.55015100	64.98339600	#	H	TIP4P
1071	220	2	-1.1128	5.00699600	24.24825300	31.98504100	#	O	TIP4P
1072	220	3	0.5564	4.72164900	24.39860900	31.08381900	#	H	TIP4P
1073	220	3	0.5564	4.27081600	23.79658300	32.39767200	#	H	TIP4P
1074	221	2	-1.1128	11.15311900	8.76025000	40.21684700	#	O	TIP4P
1075	221	3	0.5564	10.96013700	9.69461800	40.29396400	#	H	TIP4P
1076	221	3	0.5564	10.36526000	8.38406500	39.82442600	#	H	TIP4P
1077	222	2	-1.1128	2.76012900	3.64374200	61.16645400	#	O	TIP4P
1078	222	3	0.5564	1.82743400	3.85894000	61.16482400	#	H	TIP4P
1079	222	3	0.5564	2.78565300	2.68688500	61.16407900	#	H	TIP4P
1080	223	2	-1.1128	4.05184000	19.83993100	33.16983800	#	O	TIP4P
1081	223	3	0.5564	3.69169600	20.72513100	33.11552100	#	H	TIP4P
1082	223	3	0.5564	3.90343200	19.46673000	32.30097200	#	H	TIP4P
1083	224	2	-1.1128	22.55293000	4.29002000	57.35570500	#	O	TIP4P
1084	224	3	0.5564	22.22056200	4.99873500	56.80480900	#	H	TIP4P
1085	224	3	0.5564	23.43423900	4.57074400	57.60212000	#	H	TIP4P
1086	225	2	-1.1128	5.93076400	21.22288500	27.83479500	#	O	TIP4P
1087	225	3	0.5564	6.55167500	20.58685900	28.19000500	#	H	TIP4P
1088	225	3	0.5564	5.09948200	20.75004200	27.79452800	#	H	TIP4P
1089	226	2	-1.1128	1.66159100	22.18212300	58.11586200	#	O	TIP4P
1090	226	3	0.5564	2.60669500	22.03265600	58.14175800	#	H	TIP4P
1091	226	3	0.5564	1.49090000	22.76754400	58.85368100	#	H	TIP4P
1092	227	2	-1.1128	13.82884400	20.10504100	39.13527100	#	O	TIP4P
1093	227	3	0.5564	13.09076200	20.71449000	39.14157600	#	H	TIP4P
1094	227	3	0.5564	13.85316400	19.74838400	40.02320900	#	H	TIP4P
1095	228	2	-1.1128	11.86519300	33.30056200	11.65765900	#	O	TIP4P
1096	228	3	0.5564	11.62085100	33.24465400	12.58145700	#	H	TIP4P
1097	228	3	0.5564	12.72784700	32.88825800	11.61221200	#	H	TIP4P
1098	229	2	-1.1128	6.34208400	33.30027600	66.25255200	#	O	TIP4P
1099	229	3	0.5564	5.63892700	32.73532100	65.93219500	#	H	TIP4P
1100	229	3	0.5564	7.07519400	32.70525700	66.40982300	#	H	TIP4P
1101	230	2	-1.1128	4.05817100	13.23983600	45.21561000	#	O	TIP4P
1102	230	3	0.5564	3.62919900	13.14159500	44.36557300	#	H	TIP4P
1103	230	3	0.5564	4.11639300	12.34843900	45.55949000	#	H	TIP4P
1104	231	2	-1.1128	2.15236800	28.27606900	66.49348000	#	O	TIP4P
1105	231	3	0.5564	2.73054000	29.02920900	66.61484400	#	H	TIP4P
1106	231	3	0.5564	2.74200000	27.52245400	66.46838700	#	H	TIP4P
1107	232	2	-1.1128	15.94025000	29.99512300	13.77362300	#	O	TIP4P
1108	232	3	0.5564	16.73500600	29.51169100	13.99920900	#	H	TIP4P
1109	232	3	0.5564	16.17767100	30.91504600	13.89026500	#	H	TIP4P
1110	233	2	-1.1128	13.98968300	22.32896200	58.27377100	#	O	TIP4P
1111	233	3	0.5564	14.04464800	21.41617800	58.55667900	#	H	TIP4P
1112	233	3	0.5564	13.76420100	22.27913700	57.34484300	#	H	TIP4P
1113	234	2	-1.1128	19.61828500	14.46123600	29.17874200	#	O	TIP4P
1114	234	3	0.5564	18.96781200	15.13596700	29.37330600	#	H	TIP4P
1115	234	3	0.5564	20.38776400	14.94782600	28.88316900	#	H	TIP4P
1116	235	2	-1.1128	21.89899100	10.17843200	12.31782000	#	O	TIP4P
1117	235	3	0.5564	22.17417200	9.29244200	12.08217300	#	H	TIP4P
1118	235	3	0.5564	22.37404300	10.74655500	11.71136100	#	H	TIP4P
1119	236	2	-1.1128	7.66265000	12.97619500	69.10110600	#	O	TIP4P
1120	236	3	0.5564	8.29973700	13.59311300	69.46133500	#	H	TIP4P
1121	236	3	0.5564	8.19387000	12.26958300	68.73404100	#	H	TIP4P
1122	237	2	-1.1128	22.50835500	28.71141400	17.08698200	#	O	TIP4P
1123	237	3	0.5564	21.86194100	28.59633700	16.39046300	#	H	TIP4P
1124	237	3	0.5564	23.27986300	28.23560600	16.77938900	#	H	TIP4P
1125	238	2	-1.1128	14.68240200	13.93683100	22.65832900	#	O	TIP4P
1126	238	3	0.5564	15.06704100	13.06736200	22.76928000	#	H	TIP4P
1127	238	3	0.5564	15.39911600	14.54229600	22.84797200	#	H	TIP4P
1128	239	2	-1.1128	2.32163900	15.43334600	60.08927200	#	O	TIP4P
1129	239	3	0.5564	1.48807600	15.15094300	60.46564100	#	H	TIP4P
1130	239	3	0.5564	2.21397700	16.37362000	59.94600300	#	H	TIP4P
1131	240	2	-1.1128	10.26378400	5.04085300	60.59756200	#	O	TIP4P
1132	240	3	0.5564	9.34038200	4.79647600	60.53558500	#	H	TIP4P
1133	240	3	0.5564	10.25842700	5.99795800	60.60994300	#	H	TIP4P
1134	241	2	-1.1128	6.63663300	29.22789000	40.18129900	#	O	TIP4P
1135	241	3	0.5564	7.28107700	28.72545400	40.67977800	#	H	TIP4P
1136	241	3	0.5564	6.30946400	29.88010100	40.80082500	#	H	TIP4P
1137	242	2	-1.1128	14.61987300	21.73471900	66.60055600	#	O	TIP4P
1138	242	3	0.5564	13.75175300	21.34961200	66.72010500	#	H	TIP4P
1139	242	3	0.5564	14.73003900	21.78817700	65.65122100	#	H	TIP4P
1140	243	2	-1.1128	24.25433600	22.71188600	12.40887700	#	O	TIP4P
1141	243	3	0.5564	24.59006800	23.54895100	12.72956200	#	H	TIP4P
1142	243	3	0.5564	24.73457700	22.05281700	12.91010400	#	H	TIP4P
1143	244	2	-1.1128	30.20818900	6.25955000	51.82743800	#	O	TIP4P
1144	244	3	0.5564	29.62713400	5.50229300	51.89933200	#	H	TIP4P
1145	244	3	0.5564	31.05592000	5.94195200	52.13842700	#	H	TIP4P
1146	245	2	-1.1128	29.37787600	6.64268900	54.42089500	#	O	TIP4P
1147	245	3	0.5564	30.20253400	6.26901400	54.73160000	#	H	TIP4P
1148	245	3	0.5564	28.96106400	6.99239900	55.20842500	#	H	TIP4P
1149	246	2	-1.1128	30.02848100	19.67501900	47.37656300	#	O	TIP4P
1150	246	3	0.5564	29.75880400	19.26334500	46.55556900	#	H	TIP4P
1151	246	3	0.5564	30.46089700	20.48560600	47.10787000	#	H	TIP4P
1152	247	2	-1.1128	23.47735200	16.53892000	70.09470000	#	O	TIP4P
1153	247	3	0.5564	24.22492900	17.00795000	69.72406300	#	H	TIP4P
1154	247	3	0.5564	22.87179800	17.22877300	70.36606600	#	H	TIP4P
1155	248	2	-1.1128	6.44100800	18.70303700	69.46836900	#	O	TIP4P
1156	248	3	0.5564	6.99768700	19.46777100	69.61507700	#	H	TIP4P
1157	248	3	0.5564	6.50623800	18.53553200	68.52820000	#	H	TIP4P
1158	249	2	-1.1128	4.46898800	2.06696200	51.08134200	#	O	TIP4P
1159	249	3	0.5564	4.72672600	1.48332500	50.36778100	#	H	TIP4P
1160	249	3	0.5564	4.34049100	1.48656200	51.83157900	#	H	TIP4P
1161	250	2	-1.1128	28.32054000	24.27766200	48.24377300	#	O	TIP4P
1162	250	3	0.5564	28.68883000	23.49272700	48.64932400	#	H	TIP4P
1163	250	3	0.5564	29.06719900	24.70253500	47.82161800	#	H	TIP4P
1164	251	2	-1.1128	15.53279200	22.75598900	48.91510600	#	O	TIP4P
1165	251	3	0.5564	15.73584400	21.84436900	48.70546100	#	H	TIP4P
1166	251	3	0.5564	14.58430500	22.76719000	49.04347700	#	H	TIP4P
1167	252	2	-1.1128	2.31858000	27.11956300	63.78136600	#	O	TIP4P
1168	252	3	0.5564	1.48976900	27.59816500	63.76568500	#	H	TIP4P
1169	252	3	0.5564	2.98988900	27.80093400	63.74519300	#	H	TIP4P
1170	253	2	-1.1128	3.08382200	10.44439100	12.85986800	#	O	TIP4P
1171	253	3	0.5564	3.56509900	9.61701300	12.85272400	#	H	TIP4P
1172	253	3	0.5564	2.18060100	10.19836400	12.66013200	#	H	TIP4P
1173	254	2	-1.1128	7.11805500	8.09169700	51.43602600	#	O	TIP4P
1174	254	3	0.5564	6.34378800	8.64054600	51.56055600	#	H	TIP4P
1175	254	3	0.5564	6.86910600	7.47896500	50.74406100	#	H	TIP4P
1176	255	2	-1.1128	10.72189700	26.64056600	19.55028000	#	O	TIP4P
1177	255	3	0.5564	10.56461100	26.15661000	20.36100700	#	H	TIP4P
1178	255	3	0.5564	10.56884300	26.00053400	18.85518000	#	H	TIP4P
1179	256	2	-1.1128	21.04983700	3.75367400	62.09609700	#	O	TIP4P
1180	256	3	0.5564	21.11701000	3.17718700	61.33492500	#	H	TIP4P
1181	256	3	0.5564	21.91033800	3.70292700	62.51226200	#	H	TIP4P
1182	257	2	-1.1128	11.55956900	1.54133300	18.21078200	#	O	TIP4P
1183	257	3	0.5564	12.08313400	1.49835100	17.41061700	#	H	TIP4P
1184	257	3	0.5564	11.50613900	2.47546100	18.41272800	#	H	TIP4P
1185	258	2	-1.1128	13.41281600	25.11300800	11.83986400	#	O	TIP4P
1186	258	3	0.5564	13.51855300	25.46646400	12.72310800	#	H	TIP4P
1187	258	3	0.5564	14.10859600	25.52829800	11.33029800	#	H	TIP4P
1188	259	2	-1.1128	3.94472200	16.49764600	27.00063900	#	O	TIP4P
1189	259	3	0.5564	4.75970400	16.19190500	27.39883100	#	H	TIP4P
1190	259	3	0.5564	4.08177300	16.38870000	26.05958700	#	H	TIP4P
1191	260	2	-1.1128	12.96305000	8.53125800	28.41547400	#	O	TIP4P
1192	260	3	0.5564	12.33865500	8.85042600	29.06700800	#	H	TIP4P
1193	260	3	0.5564	13.31906900	9.32463600	28.01543400	#	H	TIP4P
1194	261	2	-1.1128	7.69585800	14.62748400	61.36937300	#	O	TIP4P
1195	261	3	0.5564	6.82459200	14.23116600	61.36164100	#	H	TIP4P
1196	261	3	0.5564	7.53098600	15.57004900	61.34448400	#	H	TIP4P
1197	262	2	-1.1128	9.23263000	25.35528600	51.06203400	#	O	TIP4P
1198	262	3	0.5564	8.43614200	25.00294100	51.45913700	#	H	TIP4P
1199	262	3	0.5564	9.57208100	24.63746300	50.52749300	#	H	TIP4P
1200	263	2	-1.1128	27.17198600	20.39411500	68.59817500	#	O	TIP4P
1201	263	3	0.5564	26.53716000	19.93781600	69.15046200	#	H	TIP4P
1202	263	3	0.5564	27.60927000	19.69714700	68.10904200	#	H	TIP4P
1203	264	2	-1.1128	12.11966000	32.75778700	60.10131800	#	O	TIP4P
1204	264	3	0.5564	12.59259200	33.23284100	60.78461200	#	H	TIP4P
1205	264	3	0.5564	12.20063200	33.31106200	59.32442600	#	H	TIP4P
1206	265	2	-1.1128	31.15060600	26.78983100	46.53693600	#	O	TIP4P
1207	265	3	0.5564	30.62663900	26.15368700	46.05009700	#	H	TIP4P
1208	265	3	0.5564	31.13762500	26.47099200	47.43937900	#	H	TIP4P
1209	266	2	-1.1128	20.63946600	33.18713100	41.63010500	#	O	TIP4P
1210	266	3	0.5564	21.10684000	33.06242100	40.80412500	#	H	TIP4P
1211	266	3	0.5564	21.32988200	33.33287500	42.27687800	#	H	TIP4P
1212	267	2	-1.1128	2.42331600	5.80143400	55.02985400	#	O	TIP4P
1213	267	3	0.5564	1.48405500	5.61724800	55.03971000	#	H	TIP4P
1214	267	3	0.5564	2.82941300	4.99468400	55.34682300	#	H	TIP4P
1215	268	2	-1.1128	24.32984700	31.01419600	51.52770600	#	O	TIP4P
1216	268	3	0.5564	24.07400700	31.84251800	51.93348900	#	H	TIP4P
1217	268	3	0.5564	25.25389600	30.91089500	51.75506900	#	H	TIP4P
1218	269	2	-1.1128	15.99157900	20.30593400	62.80283400	#	O	TIP4P
1219	269	3	0.5564	15.48071600	21.05500400	63.10966700	#	H	TIP4P
1220	269	3	0.5564	15.44195500	19.89868400	62.13328800	#	H	TIP4P
1221	270	2	-1.1128	22.64586800	13.29453300	38.24868300	#	O	TIP4P
1222	270	3	0.5564	23.37548000	13.91067800	38.18338200	#	H	TIP4P
1223	270	3	0.5564	22.42455700	13.28246400	39.17986900	#	H	TIP4P
1224	271	2	-1.1128	28.31980000	29.03140500	31.27914600	#	O	TIP4P
1225	271	3	0.5564	27.80945100	29.42301000	31.98796300	#	H	TIP4P
1226	271	3	0.5564	28.42521300	29.73709300	30.64108400	#	H	TIP4P
1227	272	2	-1.1128	15.83079800	29.32467000	35.42836800	#	O	TIP4P
1228	272	3	0.5564	16.27726200	30.10217300	35.76361500	#	H	TIP4P
1229	272	3	0.5564	14.96383600	29.63812300	35.17077200	#	H	TIP4P
1230	273	2	-1.1128	28.25617600	15.04811600	59.01959500	#	O	TIP4P
1231	273	3	0.5564	28.50527500	15.97231500	59.01360000	#	H	TIP4P
1232	273	3	0.5564	29.07765400	14.57909600	59.16596500	#	H	TIP4P
1233	274	2	-1.1128	18.85229300	31.06360100	35.83031100	#	O	TIP4P
1234	274	3	0.5564	18.73565600	31.99470600	36.01918200	#	H	TIP4P
1235	274	3	0.5564	19.79843300	30.92604800	35.87646100	#	H	TIP4P
1236	275	2	-1.1128	11.86270900	26.38815300	23.52776500	#	O	TIP4P
1237	275	3	0.5564	11.66434800	26.70718100	24.40816600	#	H	TIP4P
1238	275	3	0.5564	11.03496700	26.46357600	23.05301600	#	H	TIP4P
1239	276	2	-1.1128	13.95195100	19.42254500	49.70322900	#	O	TIP4P
1240	276	3	0.5564	14.75491300	19.71556900	50.13406600	#	H	TIP4P
1241	276	3	0.5564	13.60198200	20.21008800	49.28666000	#	H	TIP4P
1242	277	2	-1.1128	12.31021400	31.61141400	31.44923600	#	O	TIP4P
1243	277	3	0.5564	13.06361000	31.02267400	31.49408300	#	H	TIP4P
1244	277	3	0.5564	11.62212000	31.08960800	31.03634900	#	H	TIP4P
1245	278	2	-1.1128	31.09136900	6.68674100	28.13570200	#	O	TIP4P
1246	278	3	0.5564	31.16783900	7.60163200	28.40655000	#	H	TIP4P
1247	278	3	0.5564	31.11594500	6.71674200	27.17928800	#	H	TIP4P
1248	279	2	-1.1128	19.61194900	17.93021400	54.27125000	#	O	TIP4P
1249	279	3	0.5564	18.73775700	17.84878500	53.88995100	#	H	TIP4P
1250	279	3	0.5564	20.16809100	18.20111500	53.54080500	#	H	TIP4P
1251	280	2	-1.1128	17.14405900	19.82365000	54.94884900	#	O	TIP4P
1252	280	3	0.5564	18.00711800	20.15476100	55.19729800	#	H	TIP4P
1253	280	3	0.5564	16.82597700	19.37229400	55.73072700	#	H	TIP4P
1254	281	2	-1.1128	23.48549000	1.49688700	55.92818800	#	O	TIP4P
1255	281	3	0.5564	24.42509900	1.49145400	55.74560500	#	H	TIP4P
1256	281	3	0.5564	23.42233700	1.73011200	56.85439000	#	H	TIP4P
1257	282	2	-1.1128	18.81340500	3.55954700	19.50770100	#	O	TIP4P
1258	282	3	0.5564	17.98174200	3.83697200	19.12351000	#	H	TIP4P
1259	282	3	0.5564	18.62509900	3.45924300	20.44082000	#	H	TIP4P
1260	283	2	-1.1128	5.74030000	6.27547000	20.90281200	#	O	TIP4P
1261	283	3	0.5564	6.22106200	7.09684600	20.80063200	#	H	TIP4P
1262	283	3	0.5564	4.83227600	6.54456500	21.04178200	#	H	TIP4P
1263	284	2	-1.1128	25.92686900	28.87820900	29.87855900	#	O	TIP4P
1264	284	3	0.5564	26.10182100	29.12518400	28.97046900	#	H	TIP4P
1265	284	3	0.5564	25.65519200	29.69314200	30.30082200	#	H	TIP4P
1266	285	2	-1.1128	4.80218600	3.32127500	36.56481300	#	O	TIP4P
1267	285	3	0.5564	5.61330700	3.82391200	36.48951600	#	H	TIP4P
1268	285	3	0.5564	4.10747600	3.96361800	36.41987700	#	H	TIP4P
1269	286	2	-1.1128	26.54839700	23.47581700	36.72756700	#	O	TIP4P
1270	286	3	0.5564	26.07719900	24.30829200	36.69308900	#	H	TIP4P
1271	286	3	0.5564	27.14274400	23.56713200	37.47231200	#	H	TIP4P
1272	287	2	-1.1128	10.92768300	2.01228000	53.41213100	#	O	TIP4P
1273	287	3	0.5564	11.69942200	1.48679800	53.20113400	#	H	TIP4P
1274	287	3	0.5564	10.41066200	1.45612300	53.99489200	#	H	TIP4P
1275	288	2	-1.1128	19.50668800	7.32299700	12.16363300	#	O	TIP4P
1276	288	3	0.5564	18.56519900	7.24960000	12.00729100	#	H	TIP4P
1277	288	3	0.5564	19.64582800	8.24942000	12.36012900	#	H	TIP4P
1278	289	2	-1.1128	2.16274400	22.62559200	19.17737100	#	O	TIP4P
1279	289	3	0.5564	1.49108700	22.00793100	18.88823000	#	H	TIP4P
1280	289	3	0.5564	2.88029700	22.07255700	19.48640500	#	H	TIP4P
1281	290	2	-1.1128	27.85755700	9.43205800	36.03390700	#	O	TIP4P
1282	290	3	0.5564	28.53710000	8.97959500	35.53417600	#	H	TIP4P
1283	290	3	0.5564	28.22621000	10.29740500	36.21138900	#	H	TIP4P
1284	291	2	-1.1128	21.93753000	2.40084800	42.85852400	#	O	TIP4P
1285	291	3	0.5564	21.09381900	2.83806000	42.97354400	#	H	TIP4P
1286	291	3	0.5564	21.71167600	1.49366300	42.65300900	#	H	TIP4P
1287	292	2	-1.1128	18.19284100	7.38798700	29.95034900	#	O	TIP4P
1288	292	3	0.5564	17.77605900	8.24799000	30.00437200	#	H	TIP4P
1289	292	3	0.5564	19.13098000	7.57686400	29.92905500	#	H	TIP4P
1290	293	2	-1.1128	2.06318000	13.23591000	65.32587500	#	O	TIP4P
1291	293	3	0.5564	1.47059300	12.49679600	65.46292400	#	H	TIP4P
1292	293	3	0.5564	1.49638600	13.94472800	65.02165100	#	H	TIP4P
1293	294	2	-1.1128	15.97851100	17.69530000	22.66429600	#	O	TIP4P
1294	294	3	0.5564	15.85565600	17.18271200	23.46329000	#	H	TIP4P
1295	294	3	0.5564	15.64274100	17.13424400	21.96522100	#	H	TIP4P
1296	295	2	-1.1128	28.53139800	16.60268400	29.98855400	#	O	TIP4P
1297	295	3	0.5564	28.31106400	15.69826600	29.76558800	#	H	TIP4P
1298	295	3	0.5564	27.68510700	17.04128400	30.07603200	#	H	TIP4P
1299	296	2	-1.1128	23.20870900	4.22196600	39.32543600	#	O	TIP4P
1300	296	3	0.5564	22.28581800	4.25257600	39.57756100	#	H	TIP4P
1301	296	3	0.5564	23.68302300	4.17897300	40.15574300	#	H	TIP4P
1302	297	2	-1.1128	1.49438400	1.93188000	21.80187500	#	O	TIP4P
1303	297	3	0.5564	1.69964200	2.78631100	22.18141300	#	H	TIP4P
1304	297	3	0.5564	2.34294700	1.49740800	21.71581400	#	H	TIP4P
1305	298	2	-1.1128	31.15292800	29.11794100	60.10012600	#	O	TIP4P
1306	298	3	0.5564	31.15780400	28.19730400	60.36210900	#	H	TIP4P
1307	298	3	0.5564	31.13070100	29.09510600	59.14345700	#	H	TIP4P
1308	299	2	-1.1128	17.87251800	32.44286900	18.76111700	#	O	TIP4P
1309	299	3	0.5564	18.09474600	32.66126800	17.85604900	#	H	TIP4P
1310	299	3	0.5564	17.82311400	33.28850900	19.20685600	#	H	TIP4P
1311	300	2	-1.1128	15.24604800	7.19130200	43.42347300	#	O	TIP4P
1312	300	3	0.5564	14.51230100	6.85698800	42.90764100	#	H	TIP4P
1313	300	3	0.5564	15.47262700	6.47185300	44.01278300	#	H	TIP4P
1314	301	2	-1.1128	30.40807200	16.38191700	27.17806700	#	O	TIP4P
1315	301	3	0.5564	29.77540000	16.98635800	27.56615200	#	H	TIP4P
1316	301	3	0.5564	31.14951700	16.38928400	27.78340700	#	H	TIP4P
1317	302	2	-1.1128	15.15159000	9.27013200	30.06504900	#	O	TIP4P
1318	302	3	0.5564	15.69220600	10.03711700	29.87610300	#	H	TIP4P
1319	302	3	0.5564	15.33908900	9.06406300	30.98080600	#	H	TIP4P
1320	303	2	-1.1128	13.43588700	14.26292800	65.49439300	#	O	TIP4P
1321	303	3	0.5564	13.45806000	15.21448600	65.39301500	#	H	TIP4P
1322	303	3	0.5564	14.35179000	14.01322500	65.61687700	#	H	TIP4P
1323	304	2	-1.1128	3.35739300	17.86318500	44.72090100	#	O	TIP4P
1324	304	3	0.5564	3.90527800	17.07838900	44.70871600	#	H	TIP4P
1325	304	3	0.5564	2.46024800	17.52950500	44.72538300	#	H	TIP4P
1326	305	2	-1.1128	17.69765500	11.45959400	27.09169900	#	O	TIP4P
1327	305	3	0.5564	18.49292800	11.97531700	26.95827100	#	H	TIP4P
1328	305	3	0.5564	17.97864600	10.55159000	26.97854100	#	H	TIP4P
1329	306	2	-1.1128	16.61302000	25.79185700	61.24051800	#	O	TIP4P
1330	306	3	0.5564	17.45500000	25.77889200	61.69563800	#	H	TIP4P
1331	306	3	0.5564	16.83092900	26.03018600	60.33943700	#	H	TIP4P
1332	307	2	-1.1128	17.03899600	6.23521500	41.38468900	#	O	TIP4P
1333	307	3	0.5564	17.23905500	6.49567900	40.48559700	#	H	TIP4P
1334	307	3	0.5564	17.53038000	6.85131500	41.92800700	#	H	TIP4P
1335	308	2	-1.1128	10.59197400	5.18407100	63.32393800	#	O	TIP4P
1336	308	3	0.5564	9.92811300	4.92784300	63.96414700	#	H	TIP4P
1337	308	3	0.5564	11.31087000	4.56777100	63.46392100	#	H	TIP4P
1338	309	2	-1.1128	8.54050500	22.09995700	56.33681800	#	O	TIP4P
1339	309	3	0.5564	8.06020500	22.62278600	55.69479500	#	H	TIP4P
1340	309	3	0.5564	7.95356900	22.04768600	57.09114200	#	H	TIP4P
1341	310	2	-1.1128	2.28179900	18.91290400	26.92698300	#	O	TIP4P
1342	310	3	0.5564	1.49805000	19.28489000	27.33145200	#	H	TIP4P
1343	310	3	0.5564	1.94637100	18.31419300	26.25970100	#	H	TIP4P
1344	311	2	-1.1128	2.06615800	8.21615000	17.69413700	#	O	TIP4P
1345	311	3	0.5564	1.49997000	8.88104800	18.08602100	#	H	TIP4P
1346	311	3	0.5564	1.49955000	7.45240400	17.58515100	#	H	TIP4P
1347	312	2	-1.1128	8.17811000	21.32084800	26.09833100	#	O	TIP4P
1348	312	3	0.5564	7.96513600	22.25213000	26.03842700	#	H	TIP4P
1349	312	3	0.5564	9.13361000	21.29599500	26.14963900	#	H	TIP4P
1350	313	2	-1.1128	30.49383100	12.01670800	50.54892100	#	O	TIP4P
1351	313	3	0.5564	29.68218100	11.50955800	50.53295900	#	H	TIP4P
1352	313	3	0.5564	31.18815100	11.35798200	50.56412500	#	H	TIP4P
1353	314	2	-1.1128	24.54069700	2.86903500	26.44449700	#	O	TIP4P
1354	314	3	0.5564	25.11617900	3.63345700	26.41779600	#	H	TIP4P
1355	314	3	0.5564	23.67270500	3.22839000	26.62803200	#	H	TIP4P
1356	315	2	-1.1128	23.83439700	5.73529200	32.97539900	#	O	TIP4P
1357	315	3	0.5564	23.04735500	6.27399400	33.05661800	#	H	TIP4P
1358	315	3	0.5564	23.57064000	5.00862200	32.41094000	#	H	TIP4P
1359	316	2	-1.1128	2.07128400	20.43225700	11.13574400	#	O	TIP4P
1360	316	3	0.5564	1.49981400	19.68059300	11.29276400	#	H	TIP4P
1361	316	3	0.5564	1.49995400	21.19348300	11.23747100	#	H	TIP4P
1362	317	2	-1.1128	23.98221200	15.25272500	14.29950500	#	O	TIP4P
1363	317	3	0.5564	23.86207600	14.85817000	13.43571900	#	H	TIP4P
1364	317	3	0.5564	23.31575400	14.83823300	14.84746600	#	H	TIP4P
1365	318	2	-1.1128	5.17350600	13.76332000	50.30180400	#	O	TIP4P
1366	318	3	0.5564	5.82620200	13.11258400	50.04342100	#	H	TIP4P
1367	318	3	0.5564	4.33297900	13.32230800	50.17830300	#	H	TIP4P
1368	319	2	-1.1128	16.66249500	23.06111800	53.97026300	#	O	TIP4P
1369	319	3	0.5564	17.33191300	22.46647700	53.63186500	#	H	TIP4P
1370	319	3	0.5564	16.82288600	23.09124300	54.91344800	#	H	TIP4P
1371	320	2	-1.1128	14.27934400	23.74423000	34.55303700	#	O	TIP4P
1372	320	3	0.5564	13.59149200	23.92055500	35.19491000	#	H	TIP4P
1373	320	3	0.5564	13.96705400	24.15605200	33.74736400	#	H	TIP4P
1374	321	2	-1.1128	4.71047600	2.26680300	39.10288100	#	O	TIP4P
1375	321	3	0.5564	5.42476900	2.63897400	39.62009100	#	H	TIP4P
1376	321	3	0.5564	5.10372400	1.51823500	38.65429200	#	H	TIP4P
1377	322	2	-1.1128	17.17828500	22.19040900	57.49691500	#	O	TIP4P
1378	322	3	0.5564	16.43801900	21.64898300	57.22287900	#	H	TIP4P
1379	322	3	0.5564	17.56317800	21.71559900	58.23355900	#	H	TIP4P
1380	323	2	-1.1128	13.26229500	23.08605000	53.92650300	#	O	TIP4P
1381	323	3	0.5564	13.37830200	23.85570500	53.36936200	#	H	TIP4P
1382	323	3	0.5564	13.97975800	23.13664900	54.55810200	#	H	TIP4P
1383	324	2	-1.1128	2.55734000	28.85614800	35.82144300	#	O	TIP4P
1384	324	3	0.5564	1.62572300	29.07589600	35.81577300	#	H	TIP4P
1385	324	3	0.5564	3.00313500	29.70192500	35.86791400	#	H	TIP4P
1386	325	2	-1.1128	24.50086200	27.03539500	54.04769000	#	O	TIP4P
1387	325	3	0.5564	24.51236300	27.96686200	54.26784300	#	H	TIP4P
1388	325	3	0.5564	23.71350200	26.92445200	53.51478500	#	H	TIP4P
1389	326	2	-1.1128	26.99536000	6.60553500	57.31771000	#	O	TIP4P
1390	326	3	0.5564	26.46988400	6.63531200	58.11722200	#	H	TIP4P
1391	326	3	0.5564	27.79055200	6.13649300	57.57049600	#	H	TIP4P
1392	327	2	-1.1128	8.29878900	17.52775100	66.06189500	#	O	TIP4P
1393	327	3	0.5564	8.20159600	18.46782900	65.91010900	#	H	TIP4P
1394	327	3	0.5564	7.41805400	17.22887400	66.28819000	#	H	TIP4P
1395	328	2	-1.1128	13.15730900	32.71593500	33.86271500	#	O	TIP4P
1396	328	3	0.5564	13.87367200	33.29995600	34.11166200	#	H	TIP4P
1397	328	3	0.5564	12.41776500	33.30051200	33.69665800	#	H	TIP4P
1398	329	2	-1.1128	4.57298700	30.25713700	30.18753700	#	O	TIP4P
1399	329	3	0.5564	3.92098800	30.23527900	30.88800200	#	H	TIP4P
1400	329	3	0.5564	4.06038200	30.20522000	29.38083300	#	H	TIP4P
1401	330	2	-1.1128	26.19416900	5.43730400	31.59552900	#	O	TIP4P
1402	330	3	0.5564	26.46035700	4.97459800	32.39006000	#	H	TIP4P
1403	330	3	0.5564	26.00319100	4.74231100	30.96565300	#	H	TIP4P
1404	331	2	-1.1128	24.18465700	28.61837700	40.13421700	#	O	TIP4P
1405	331	3	0.5564	24.40344000	27.68781200	40.08507700	#	H	TIP4P
1406	331	3	0.5564	25.03056900	29.06021700	40.20799000	#	H	TIP4P
1407	332	2	-1.1128	18.26380800	13.52641000	59.03816100	#	O	TIP4P
1408	332	3	0.5564	17.57698500	14.19002300	59.10237500	#	H	TIP4P
1409	332	3	0.5564	17.82685300	12.76491600	58.65680900	#	H	TIP4P
1410	333	2	-1.1128	18.26825400	12.12838600	44.92600500	#	O	TIP4P
1411	333	3	0.5564	18.47024500	11.85831100	45.82182300	#	H	TIP4P
1412	333	3	0.5564	19.12335400	12.25799900	44.51584000	#	H	TIP4P
1413	334	2	-1.1128	6.64483800	13.91179800	10.32876400	#	O	TIP4P
1414	334	3	0.5564	6.44423000	13.02154700	10.61762700	#	H	TIP4P
1415	334	3	0.5564	7.12310000	14.29982200	11.06152200	#	H	TIP4P
1416	335	2	-1.1128	15.17847000	8.98993100	68.82558900	#	O	TIP4P
1417	335	3	0.5564	16.00570000	8.67377700	69.18886500	#	H	TIP4P
1418	335	3	0.5564	15.19400100	9.93448200	68.97990900	#	H	TIP4P
1419	336	2	-1.1128	26.85959200	14.02717400	42.90046900	#	O	TIP4P
1420	336	3	0.5564	25.91932900	14.16470700	42.78548300	#	H	TIP4P
1421	336	3	0.5564	27.24514700	14.89552700	42.78410000	#	H	TIP4P
1422	337	2	-1.1128	4.80395800	19.78432600	22.20265100	#	O	TIP4P
1423	337	3	0.5564	5.37738900	20.53590900	22.05254700	#	H	TIP4P
1424	337	3	0.5564	3.92594200	20.16068300	22.26325800	#	H	TIP4P
1425	338	2	-1.1128	4.09632600	16.53845800	34.79796400	#	O	TIP4P
1426	338	3	0.5564	4.94802800	16.10734700	34.72740500	#	H	TIP4P
1427	338	3	0.5564	4.16829600	17.30628600	34.23096100	#	H	TIP4P
1428	339	2	-1.1128	18.17657600	7.88724000	14.65534300	#	O	TIP4P
1429	339	3	0.5564	18.32013200	7.23324300	15.33938300	#	H	TIP4P
1430	339	3	0.5564	17.24643400	8.10336600	14.72135900	#	H	TIP4P
1431	340	2	-1.1128	26.12475900	23.37711300	22.01944400	#	O	TIP4P
1432	340	3	0.5564	25.67253900	24.20358900	22.18875900	#	H	TIP4P
1433	340	3	0.5564	25.56336800	22.71079500	22.41579100	#	H	TIP4P
1434	341	2	-1.1128	22.16806400	8.27663800	17.89075600	#	O	TIP4P
1435	341	3	0.5564	22.08382100	7.32335800	17.87096300	#	H	TIP4P
1436	341	3	0.5564	21.92375700	8.52066600	18.78350200	#	H	TIP4P
1437	342	2	-1.1128	31.03244300	31.28188600	29.13763800	#	O	TIP4P
1438	342	3	0.5564	31.15062700	30.75535100	29.92822300	#	H	TIP4P
1439	342	3	0.5564	31.16636800	32.18411600	29.42794500	#	H	TIP4P
1440	343	2	-1.1128	7.56081900	2.30931400	15.69578200	#	O	TIP4P
1441	343	3	0.5564	7.83305100	1.52451800	16.17140500	#	H	TIP4P
1442	343	3	0.5564	7.05084100	1.97732600	14.95690700	#	H	TIP4P
1443	344	2	-1.1128	4.76128800	28.07250100	53.58795500	#	O	TIP4P
1444	344	3	0.5564	5.45231600	27.47185800	53.30877700	#	H	TIP4P
1445	344	3	0.5564	5.01594200	28.91880200	53.22031700	#	H	TIP4P
1446	345	2	-1.1128	3.84365900	32.75109800	50.23787500	#	O	TIP4P
1447	345	3	0.5564	3.25666000	33.31554500	49.73482100	#	H	TIP4P
1448	345	3	0.5564	4.58662900	33.31301100	50.45805800	#	H	TIP4P
1449	346	2	-1.1128	23.16053800	29.20838900	66.08657900	#	O	TIP4P
1450	346	3	0.5564	22.78872400	29.22245200	66.96850200	#	H	TIP4P
1451	346	3	0.5564	23.84445400	28.53980400	66.12510400	#	H	TIP4P
1452	347	2	-1.1128	9.18626100	1.53065400	32.42759800	#	O	TIP4P
1453	347	3	0.5564	8.27435200	1.47523700	32.71322600	#	H	TIP4P
1454	347	3	0.5564	9.31464100	2.45448800	32.21246700	#	H	TIP4P
1455	348	2	-1.1128	20.80463800	10.78369000	68.29452700	#	O	TIP4P
1456	348	3	0.5564	21.38761200	11.49133600	68.01955200	#	H	TIP4P
1457	348	3	0.5564	20.16457700	11.20831400	68.86570700	#	H	TIP4P
1458	349	2	-1.1128	7.50538000	12.47691800	27.44692600	#	O	TIP4P
1459	349	3	0.5564	8.14998300	11.78597700	27.59963100	#	H	TIP4P
1460	349	3	0.5564	6.91069200	12.41987100	28.19480500	#	H	TIP4P
1461	350	2	-1.1128	25.18405600	11.52002800	67.78338000	#	O	TIP4P
1462	350	3	0.5564	24.30147100	11.15068000	67.75409200	#	H	TIP4P
1463	350	3	0.5564	25.76278400	10.75776900	67.79968900	#	H	TIP4P
1464	351	2	-1.1128	1.49682800	16.55494500	63.16177900	#	O	TIP4P
1465	351	3	0.5564	1.97223800	16.44682700	63.98550700	#	H	TIP4P
1466	351	3	0.5564	1.54778500	17.49267300	62.97657700	#	H	TIP4P
1467	352	2	-1.1128	21.55765600	18.29194600	45.64813900	#	O	TIP4P
1468	352	3	0.5564	22.47315500	18.57009900	45.62120700	#	H	TIP4P
1469	352	3	0.5564	21.59865200	17.33992900	45.73876700	#	H	TIP4P
1470	353	2	-1.1128	25.91296600	16.24731900	11.37488200	#	O	TIP4P
1471	353	3	0.5564	25.69568000	15.66159900	10.64965700	#	H	TIP4P
1472	353	3	0.5564	26.12786300	15.66127700	12.10055700	#	H	TIP4P
1473	354	2	-1.1128	4.05276300	13.11056900	27.13949000	#	O	TIP4P
1474	354	3	0.5564	3.39555500	13.80648700	27.13672200	#	H	TIP4P
1475	354	3	0.5564	4.83451200	13.51725800	26.76572000	#	H	TIP4P
1476	355	2	-1.1128	18.69398900	30.44629400	55.25607600	#	O	TIP4P
1477	355	3	0.5564	19.61179100	30.30698000	55.02270300	#	H	TIP4P
1478	355	3	0.5564	18.63731700	30.18310700	56.17463600	#	H	TIP4P
1479	356	2	-1.1128	9.35930800	11.23155500	21.47063200	#	O	TIP4P
1480	356	3	0.5564	9.17212600	10.30661600	21.63089000	#	H	TIP4P
1481	356	3	0.5564	8.51659000	11.67050100	21.58632700	#	H	TIP4P
1482	357	2	-1.1128	14.68491600	5.94658600	57.82542400	#	O	TIP4P
1483	357	3	0.5564	14.03850000	6.55235400	58.18794600	#	H	TIP4P
1484	357	3	0.5564	15.34807600	5.86485500	58.51082100	#	H	TIP4P
1485	358	2	-1.1128	10.87462000	15.94235000	40.81709200	#	O	TIP4P
1486	358	3	0.5564	11.26254900	16.81077800	40.70950200	#	H	TIP4P
1487	358	3	0.5564	10.07845700	15.96772300	40.28632600	#	H	TIP4P
1488	359	2	-1.1128	17.15815200	14.68141800	50.23996800	#	O	TIP4P
1489	359	3	0.5564	16.57809300	14.40969300	50.95125400	#	H	TIP4P
1490	359	3	0.5564	18.02078800	14.35479500	50.49572100	#	H	TIP4P
1491	360	2	-1.1128	21.94315600	11.16561600	35.94381700	#	O	TIP4P
1492	360	3	0.5564	21.56600000	12.04392600	35.99437900	#	H	TIP4P
1493	360	3	0.5564	21.25599800	10.58970200	36.27903300	#	H	TIP4P
1494	361	2	-1.1128	7.89307800	7.90651800	54.14665200	#	O	TIP4P
1495	361	3	0.5564	7.54654000	7.45792500	54.91795400	#	H	TIP4P
1496	361	3	0.5564	7.39550300	8.72290100	54.10008200	#	H	TIP4P
1497	362	2	-1.1128	2.33562200	26.97607000	37.81519900	#	O	TIP4P
1498	362	3	0.5564	2.51816900	26.19056400	38.33084300	#	H	TIP4P
1499	362	3	0.5564	1.49642200	26.79547500	37.39168900	#	H	TIP4P
1500	363	2	-1.1128	28.51396400	33.12111700	38.24262400	#	O	TIP4P
1501	363	3	0.5564	27.59290000	33.32892900	38.39974000	#	H	TIP4P
1502	363	3	0.5564	28.49302500	32.32995900	37.70423400	#	H	TIP4P
1503	364	2	-1.1128	19.57896700	16.30520100	31.78601400	#	O	TIP4P
1504	364	3	0.5564	20.39374000	15.83139600	31.61902300	#	H	TIP4P
1505	364	3	0.5564	19.26505100	15.95620000	32.62021200	#	H	TIP4P
1506	365	2	-1.1128	31.15045200	3.68698800	66.01870600	#	O	TIP4P
1507	365	3	0.5564	31.15459400	4.51210300	65.53352500	#	H	TIP4P
1508	365	3	0.5564	31.15043400	3.94980100	66.93911900	#	H	TIP4P
1509	366	2	-1.1128	10.62763800	6.17193100	70.67656100	#	O	TIP4P
1510	366	3	0.5564	10.48106500	5.34363400	70.21975400	#	H	TIP4P
1511	366	3	0.5564	10.50038700	6.84211000	70.00507100	#	H	TIP4P
1512	367	2	-1.1128	2.11033700	28.53013300	27.28856600	#	O	TIP4P
1513	367	3	0.5564	1.56226100	29.31293600	27.34392200	#	H	TIP4P
1514	367	3	0.5564	1.49465100	27.80062200	27.35910800	#	H	TIP4P
1515	368	2	-1.1128	22.38845500	28.08903000	47.60258700	#	O	TIP4P
1516	368	3	0.5564	22.67063800	27.73167500	48.44455000	#	H	TIP4P
1517	368	3	0.5564	21.45011800	28.24449900	47.71022100	#	H	TIP4P
1518	369	2	-1.1128	30.26992200	33.18088600	49.85110600	#	O	TIP4P
1519	369	3	0.5564	29.69425400	33.30097500	50.60636500	#	H	TIP4P
1520	369	3	0.5564	31.15286300	33.30025800	50.20095900	#	H	TIP4P
1521	370	2	-1.1128	5.85205300	20.40897300	45.28783300	#	O	TIP4P
1522	370	3	0.5564	5.32706000	19.77959500	44.79336700	#	H	TIP4P
1523	370	3	0.5564	6.52147800	19.87727800	45.71841700	#	H	TIP4P
1524	371	2	-1.1128	9.67578800	20.02387800	54.81344500	#	O	TIP4P
1525	371	3	0.5564	10.18565400	19.21498700	54.76912400	#	H	TIP4P
1526	371	3	0.5564	10.32892300	20.72209100	54.76713500	#	H	TIP4P
1527	372	2	-1.1128	11.40042700	15.85263300	71.15667800	#	O	TIP4P
1528	372	3	0.5564	11.62352900	15.48794300	72.01310000	#	H	TIP4P
1529	372	3	0.5564	11.69574700	16.76216100	71.19882400	#	H	TIP4P
1530	373	2	-1.1128	25.64031300	14.07747600	20.14887700	#	O	TIP4P
1531	373	3	0.5564	24.82087700	13.64442100	19.90967100	#	H	TIP4P
1532	373	3	0.5564	26.16008900	14.06835400	19.34514800	#	H	TIP4P
1533	374	2	-1.1128	11.50503600	31.19163500	63.10754800	#	O	TIP4P
1534	374	3	0.5564	10.83454600	30.83029600	63.68729600	#	H	TIP4P
1535	374	3	0.5564	11.05045500	31.87033500	62.60859500	#	H	TIP4P
1536	375	2	-1.1128	6.68316300	25.06475200	42.56431400	#	O	TIP4P
1537	375	3	0.5564	5.74035700	25.19478800	42.66648600	#	H	TIP4P
1538	375	3	0.5564	6.96781000	25.79437900	42.01399500	#	H	TIP4P
1539	376	2	-1.1128	27.28498300	9.66609500	19.29900900	#	O	TIP4P
1540	376	3	0.5564	27.01475200	9.66627200	18.38074600	#	H	TIP4P
1541	376	3	0.5564	27.18343500	10.57570700	19.57923200	#	H	TIP4P
1542	377	2	-1.1128	8.18866800	15.97363300	37.88921400	#	O	TIP4P
1543	377	3	0.5564	7.61174100	15.72844300	37.16584200	#	H	TIP4P
1544	377	3	0.5564	8.07739100	15.27382200	38.53273000	#	H	TIP4P
1545	378	2	-1.1128	27.47704400	9.54576400	49.58431000	#	O	TIP4P
1546	378	3	0.5564	28.04054100	9.98016400	48.94399800	#	H	TIP4P
1547	378	3	0.5564	27.26922200	10.22784200	50.22291100	#	H	TIP4P
1548	379	2	-1.1128	18.86925100	20.10437900	18.56694600	#	O	TIP4P
1549	379	3	0.5564	18.21295600	19.98280200	17.88085100	#	H	TIP4P
1550	379	3	0.5564	19.24747400	20.96516600	18.38743400	#	H	TIP4P
1551	380	2	-1.1128	28.44946300	33.26111300	35.04473500	#	O	TIP4P
1552	380	3	0.5564	29.40291500	33.34095500	35.01669700	#	H	TIP4P
1553	380	3	0.5564	28.28477200	32.32178400	34.96246400	#	H	TIP4P
1554	381	2	-1.1128	14.42644600	11.46354300	66.69514200	#	O	TIP4P
1555	381	3	0.5564	13.84453300	11.90872500	67.31111500	#	H	TIP4P
1556	381	3	0.5564	15.30075000	11.78431600	66.91633900	#	H	TIP4P
1557	382	2	-1.1128	31.09998800	5.78370100	34.83559200	#	O	TIP4P
1558	382	3	0.5564	31.17776300	6.73739400	34.86112400	#	H	TIP4P
1559	382	3	0.5564	30.15693000	5.61977900	34.83404800	#	H	TIP4P
1560	383	2	-1.1128	31.09485100	5.89786800	68.87776600	#	O	TIP4P
1561	383	3	0.5564	31.15148700	6.53924600	69.58604400	#	H	TIP4P
1562	383	3	0.5564	30.15569300	5.76706200	68.74698500	#	H	TIP4P
1563	384	2	-1.1128	11.81248600	21.35932700	25.26026600	#	O	TIP4P
1564	384	3	0.5564	11.81317200	21.51557100	24.31590400	#	H	TIP4P
1565	384	3	0.5564	12.65854500	20.94758600	25.43600800	#	H	TIP4P
1566	385	2	-1.1128	6.85163600	30.37546700	23.07614900	#	O	TIP4P
1567	385	3	0.5564	7.45745500	29.63509100	23.04360400	#	H	TIP4P
1568	385	3	0.5564	5.98660800	29.98312500	22.95771700	#	H	TIP4P
1569	386	2	-1.1128	24.43719900	27.27704100	61.03158700	#	O	TIP4P
1570	386	3	0.5564	24.48030100	26.32896000	60.90702200	#	H	TIP4P
1571	386	3	0.5564	25.27650200	27.50496200	61.43140500	#	H	TIP4P
1572	387	2	-1.1128	15.30345600	21.55091100	35.85748200	#	O	TIP4P
1573	387	3	0.5564	15.38488800	21.32420300	36.78387500	#	H	TIP4P
1574	387	3	0.5564	14.94361000	20.76382700	35.44853100	#	H	TIP4P
1575	388	2	-1.1128	26.05634700	15.15805500	31.24309300	#	O	TIP4P
1576	388	3	0.5564	25.46843800	15.47291800	30.55646600	#	H	TIP4P
1577	388	3	0.5564	25.50060400	15.08228500	32.01874700	#	H	TIP4P
1578	389	2	-1.1128	15.94648500	24.56769200	70.50652400	#	O	TIP4P
1579	389	3	0.5564	15.88193800	23.80260200	71.07810400	#	H	TIP4P
1580	389	3	0.5564	15.03894800	24.78648800	70.29501300	#	H	TIP4P
1581	390	2	-1.1128	4.15123100	15.36870000	15.69834000	#	O	TIP4P
1582	390	3	0.5564	3.98408900	14.80468400	14.94323600	#	H	TIP4P
1583	390	3	0.5564	4.49798200	14.77803000	16.36699800	#	H	TIP4P
1584	391	2	-1.1128	21.20238600	9.80340100	21.59421800	#	O	TIP4P
1585	391	3	0.5564	21.88000700	10.13947400	21.00760200	#	H	TIP4P
1586	391	3	0.5564	21.59527900	9.84915300	22.46586800	#	H	TIP4P
1587	392	2	-1.1128	7.68639800	4.53049900	46.00631600	#	O	TIP4P
1588	392	3	0.5564	6.97030800	3.93985400	46.23995100	#	H	TIP4P
1589	392	3	0.5564	8.32167500	4.42961700	46.71517300	#	H	TIP4P
1590	393	2	-1.1128	1.79192200	16.83347600	31.24491300	#	O	TIP4P
1591	393	3	0.5564	2.68824400	16.55281200	31.06034300	#	H	TIP4P
1592	393	3	0.5564	1.47469700	16.20951100	31.89780500	#	H	TIP4P
1593	394	2	-1.1128	11.31728800	8.11288900	17.55739100	#	O	TIP4P
1594	394	3	0.5564	12.13448200	8.59829100	17.67058000	#	H	TIP4P
1595	394	3	0.5564	11.32835300	7.45820200	18.25559800	#	H	TIP4P
1596	395	2	-1.1128	16.26786400	7.35209300	27.59016700	#	O	TIP4P
1597	395	3	0.5564	16.56341500	8.26100500	27.53761900	#	H	TIP4P
1598	395	3	0.5564	15.44387200	7.39534400	28.07534400	#	H	TIP4P
1599	396	2	-1.1128	24.83824000	21.72040300	52.07697800	#	O	TIP4P
1600	396	3	0.5564	25.20316600	21.11553900	51.43106800	#	H	TIP4P
1601	396	3	0.5564	24.11127900	22.14650200	51.62288500	#	H	TIP4P
1602	397	2	-1.1128	20.27572900	29.50508400	18.70899400	#	O	TIP4P
1603	397	3	0.5564	20.29290600	30.16465800	18.01552600	#	H	TIP4P
1604	397	3	0.5564	20.02554800	29.99011000	19.49537300	#	H	TIP4P
1605	398	2	-1.1128	13.05401600	17.61600900	42.83866600	#	O	TIP4P
1606	398	3	0.5564	12.55595600	18.38354400	42.55749300	#	H	TIP4P
1607	398	3	0.5564	13.58015700	17.37843300	42.07514500	#	H	TIP4P
1608	399	2	-1.1128	7.54672500	21.16025700	18.56099000	#	O	TIP4P
1609	399	3	0.5564	6.80158700	21.55279400	19.01587100	#	H	TIP4P
1610	399	3	0.5564	8.17620700	21.87557400	18.46986300	#	H	TIP4P
1611	400	2	-1.1128	31.16406400	18.50745200	51.73152700	#	O	TIP4P
1612	400	3	0.5564	31.16130100	17.73790900	52.30076100	#	H	TIP4P
1613	400	3	0.5564	30.47297000	19.06861800	52.08325700	#	H	TIP4P
1614	401	2	-1.1128	8.52437400	11.47678800	71.34612000	#	O	TIP4P
1615	401	3	0.5564	8.82773900	10.59821900	71.57485100	#	H	TIP4P
1616	401	3	0.5564	7.87836100	11.69046200	72.01935200	#	H	TIP4P
1617	402	2	-1.1128	1.49771000	28.68828200	40.25554300	#	O	TIP4P
1618	402	3	0.5564	2.42245400	28.61884000	40.01835500	#	H	TIP4P
1619	402	3	0.5564	1.48729900	29.27521100	41.01161100	#	H	TIP4P
1620	403	2	-1.1128	9.43163200	26.72227200	36.38205700	#	O	TIP4P
1621	403	3	0.5564	10.38457700	26.78272600	36.31517700	#	H	TIP4P
1622	403	3	0.5564	9.12716500	26.71784100	35.47458100	#	H	TIP4P
1623	404	2	-1.1128	26.87127200	28.19856800	64.45789900	#	O	TIP4P
1624	404	3	0.5564	26.98141100	27.90759300	63.55267300	#	H	TIP4P
1625	404	3	0.5564	27.58329000	28.82285900	64.59762400	#	H	TIP4P
1626	405	2	-1.1128	29.10532000	28.63052200	18.32402700	#	O	TIP4P
1627	405	3	0.5564	28.27611400	29.01022600	18.61466900	#	H	TIP4P
1628	405	3	0.5564	29.41771400	28.13053500	19.07811800	#	H	TIP4P
1629	406	2	-1.1128	21.46490600	4.08286500	30.43414100	#	O	TIP4P
1630	406	3	0.5564	22.35971200	3.78827900	30.26451400	#	H	TIP4P
1631	406	3	0.5564	21.29785900	3.83210100	31.34268000	#	H	TIP4P
1632	407	2	-1.1128	1.44896500	4.49544800	44.05568700	#	O	TIP4P
1633	407	3	0.5564	1.52099300	5.44966900	44.07814700	#	H	TIP4P
1634	407	3	0.5564	2.35362700	4.18774100	43.99970200	#	H	TIP4P
1635	408	2	-1.1128	17.37897900	16.22354400	26.76657800	#	O	TIP4P
1636	408	3	0.5564	17.11718300	17.09999800	26.48458100	#	H	TIP4P
1637	408	3	0.5564	17.86937700	15.86926600	26.02480400	#	H	TIP4P
1638	409	2	-1.1128	27.87788900	4.58662400	23.27660100	#	O	TIP4P
1639	409	3	0.5564	27.39028700	4.04623600	22.65494500	#	H	TIP4P
1640	409	3	0.5564	28.71971000	4.14132500	23.37291900	#	H	TIP4P
1641	410	2	-1.1128	11.24856600	29.64025600	27.25451300	#	O	TIP4P
1642	410	3	0.5564	10.78928400	29.31905100	28.03047600	#	H	TIP4P
1643	410	3	0.5564	11.10829200	28.96139400	26.59443700	#	H	TIP4P
1644	411	2	-1.1128	2.32274000	18.40298200	57.70237900	#	O	TIP4P
1645	411	3	0.5564	2.41964800	19.34747900	57.58086100	#	H	TIP4P
1646	411	3	0.5564	1.47329000	18.30218800	58.13192200	#	H	TIP4P
1647	412	2	-1.1128	4.55126100	28.47226400	20.23511500	#	O	TIP4P
1648	412	3	0.5564	5.38244700	28.18995800	20.61677600	#	H	TIP4P
1649	412	3	0.5564	4.72090100	28.51304500	19.29395100	#	H	TIP4P
1650	413	2	-1.1128	5.05487500	23.33495000	21.60322900	#	O	TIP4P
1651	413	3	0.5564	5.16913500	22.94197600	20.73792600	#	H	TIP4P
1652	413	3	0.5564	4.11118200	23.30052600	21.75972500	#	H	TIP4P
1653	414	2	-1.1128	16.82936300	22.92483900	60.63006600	#	O	TIP4P
1654	414	3	0.5564	16.45543800	22.04918600	60.72827200	#	H	TIP4P
1655	414	3	0.5564	16.25345700	23.36281700	60.00337800	#	H	TIP4P
1656	415	2	-1.1128	5.70975000	28.37713300	31.84026500	#	O	TIP4P
1657	415	3	0.5564	5.31274200	28.21249700	32.69555000	#	H	TIP4P
1658	415	3	0.5564	5.54565500	27.57682300	31.34145800	#	H	TIP4P
1659	416	2	-1.1128	3.28441700	11.24370700	38.42564200	#	O	TIP4P
1660	416	3	0.5564	3.42539600	12.15566700	38.17130900	#	H	TIP4P
1661	416	3	0.5564	4.16403300	10.89834500	38.57806700	#	H	TIP4P
1662	417	2	-1.1128	7.58422400	25.82753800	71.70506200	#	O	TIP4P
1663	417	3	0.5564	6.87535500	26.40110100	71.99620500	#	H	TIP4P
1664	417	3	0.5564	8.38253000	26.25916900	72.00941900	#	H	TIP4P
1665	418	2	-1.1128	19.49611800	5.01497300	54.64391000	#	O	TIP4P
1666	418	3	0.5564	19.14726500	4.88989300	55.52645600	#	H	TIP4P
1667	418	3	0.5564	20.43025600	4.82278100	54.72563000	#	H	TIP4P
1668	419	2	-1.1128	7.38843800	14.00996500	19.74754600	#	O	TIP4P
1669	419	3	0.5564	7.58931100	14.80882000	19.25998800	#	H	TIP4P
1670	419	3	0.5564	7.80517100	14.13773500	20.59974300	#	H	TIP4P
1671	420	2	-1.1128	4.72136000	18.74304700	54.20976600	#	O	TIP4P
1672	420	3	0.5564	4.09443400	19.46286800	54.13867800	#	H	TIP4P
1673	420	3	0.5564	4.18943700	17.95203600	54.12263800	#	H	TIP4P
1674	421	2	-1.1128	16.69659600	18.20118000	15.78440400	#	O	TIP4P
1675	421	3	0.5564	16.62391800	17.34000500	15.37291100	#	H	TIP4P
1676	421	3	0.5564	17.58042300	18.49733600	15.56675400	#	H	TIP4P
1677	422	2	-1.1128	30.56902700	26.15956900	24.18145200	#	O	TIP4P
1678	422	3	0.5564	31.15415100	26.91706600	24.18918600	#	H	TIP4P
1679	422	3	0.5564	31.15559400	25.40316900	24.18680400	#	H	TIP4P
1680	423	2	-1.1128	9.27025100	20.28525900	51.82189200	#	O	TIP4P
1681	423	3	0.5564	9.24793800	19.87904500	50.95544900	#	H	TIP4P
1682	423	3	0.5564	8.56219300	19.85922600	52.30498700	#	H	TIP4P
1683	424	2	-1.1128	11.04106600	29.18997700	23.40777100	#	O	TIP4P
1684	424	3	0.5564	11.12055000	29.29017700	22.45915400	#	H	TIP4P
1685	424	3	0.5564	11.68328200	29.80136400	23.76831900	#	H	TIP4P
1686	425	2	-1.1128	22.16638100	23.70986400	61.70711200	#	O	TIP4P
1687	425	3	0.5564	22.90406700	23.34244000	62.19398900	#	H	TIP4P
1688	425	3	0.5564	22.55924200	24.37530000	61.14223400	#	H	TIP4P
1689	426	2	-1.1128	5.09296100	19.35651700	18.87314400	#	O	TIP4P
1690	426	3	0.5564	4.58203700	18.54708700	18.87656600	#	H	TIP4P
1691	426	3	0.5564	4.61883400	19.94208800	19.46351900	#	H	TIP4P
1692	427	2	-1.1128	3.24755500	20.39224100	71.15332500	#	O	TIP4P
1693	427	3	0.5564	4.02114100	20.00185200	71.56000900	#	H	TIP4P
1694	427	3	0.5564	2.61388800	19.67633900	71.10660500	#	H	TIP4P
1695	428	2	-1.1128	26.18130200	22.99682000	49.68010200	#	O	TIP4P
1696	428	3	0.5564	25.79092800	23.44877400	48.93205300	#	H	TIP4P
1697	428	3	0.5564	26.10284300	23.61847300	50.40372000	#	H	TIP4P
1698	429	2	-1.1128	18.85219600	25.09515600	52.79129400	#	O	TIP4P
1699	429	3	0.5564	18.91409700	25.25677700	53.73271700	#	H	TIP4P
1700	429	3	0.5564	19.31145200	24.26573400	52.65948100	#	H	TIP4P
1701	430	2	-1.1128	11.85429900	20.71379400	30.43030400	#	O	TIP4P
1702	430	3	0.5564	11.71579300	19.81125600	30.14312400	#	H	TIP4P
1703	430	3	0.5564	11.11572400	20.89688500	31.01100700	#	H	TIP4P
1704	431	2	-1.1128	16.15813400	1.54199900	66.76128100	#	O	TIP4P
1705	431	3	0.5564	16.98130600	1.49855600	67.24783200	#	H	TIP4P
1706	431	3	0.5564	15.47906900	1.45496500	67.43025600	#	H	TIP4P
1707	432	2	-1.1128	4.41418300	25.67273500	23.11687900	#	O	TIP4P
1708	432	3	0.5564	5.30298200	25.43490400	23.38089400	#	H	TIP4P
1709	432	3	0.5564	4.52719500	26.44350700	22.56067000	#	H	TIP4P
1710	433	2	-1.1128	9.46743500	7.88716000	30.28612500	#	O	TIP4P
1711	433	3	0.5564	9.69212100	8.81758900	30.27906200	#	H	TIP4P
1712	433	3	0.5564	10.31168500	7.43628900	30.27242100	#	H	TIP4P
1713	434	2	-1.1128	28.31756300	16.55002600	51.33675100	#	O	TIP4P
1714	434	3	0.5564	28.80484400	16.33207100	52.13128500	#	H	TIP4P
1715	434	3	0.5564	28.87163600	17.18426700	50.88180700	#	H	TIP4P
1716	435	2	-1.1128	17.08643800	12.27789900	34.90230700	#	O	TIP4P
1717	435	3	0.5564	16.51999500	11.54523400	34.66028200	#	H	TIP4P
1718	435	3	0.5564	17.68599800	12.37239700	34.16215200	#	H	TIP4P
1719	436	2	-1.1128	31.20812600	22.65114000	52.65267700	#	O	TIP4P
1720	436	3	0.5564	31.06990400	21.70768800	52.56886300	#	H	TIP4P
1721	436	3	0.5564	30.41323100	22.97333300	53.07760500	#	H	TIP4P
1722	437	2	-1.1128	14.64893700	28.58729900	31.84648700	#	O	TIP4P
1723	437	3	0.5564	15.02537900	28.10171800	32.58047300	#	H	TIP4P
1724	437	3	0.5564	15.22691500	29.34234800	31.73660300	#	H	TIP4P
1725	438	2	-1.1128	8.31126100	18.01952000	71.77231300	#	O	TIP4P
1726	438	3	0.5564	7.69773100	17.33811400	71.49754200	#	H	TIP4P
1727	438	3	0.5564	9.10860200	17.54438900	72.00625500	#	H	TIP4P
1728	439	2	-1.1128	11.41588700	26.20888100	33.47903000	#	O	TIP4P
1729	439	3	0.5564	11.05174400	25.62818700	32.81087900	#	H	TIP4P
1730	439	3	0.5564	11.68298600	25.62251200	34.18688600	#	H	TIP4P
1731	440	2	-1.1128	8.70535000	21.06195900	59.55724900	#	O	TIP4P
1732	440	3	0.5564	8.72264500	20.26050600	59.03417600	#	H	TIP4P
1733	440	3	0.5564	8.19623600	20.83058000	60.33410000	#	H	TIP4P
1734	441	2	-1.1128	4.20974400	14.60922500	29.64679400	#	O	TIP4P
1735	441	3	0.5564	3.74256900	13.80256000	29.86421200	#	H	TIP4P
1736	441	3	0.5564	5.08296700	14.31763600	29.38470900	#	H	TIP4P
1737	442	2	-1.1128	8.69212400	33.17157700	41.53443900	#	O	TIP4P
1738	442	3	0.5564	7.82004600	33.30698300	41.90508300	#	H	TIP4P
1739	442	3	0.5564	8.53652800	32.67929900	40.72840900	#	H	TIP4P
1740	443	2	-1.1128	14.68080500	1.47929100	60.45826900	#	O	TIP4P
1741	443	3	0.5564	15.37270700	2.13980200	60.49333300	#	H	TIP4P
1742	443	3	0.5564	13.90572900	1.92529300	60.79969600	#	H	TIP4P
1743	444	2	-1.1128	22.20770900	22.68614200	68.83528600	#	O	TIP4P
1744	444	3	0.5564	22.75058700	22.51443900	69.60472300	#	H	TIP4P
1745	444	3	0.5564	21.34399700	22.34714700	69.07048200	#	H	TIP4P
1746	445	2	-1.1128	31.17470100	25.19534500	32.66633100	#	O	TIP4P
1747	445	3	0.5564	31.14677600	26.15200600	32.65046500	#	H	TIP4P
1748	445	3	0.5564	30.27202000	24.93183900	32.84511600	#	H	TIP4P
1749	446	2	-1.1128	7.39383400	8.35747100	28.54320400	#	O	TIP4P
1750	446	3	0.5564	6.43957100	8.28269500	28.54790200	#	H	TIP4P
1751	446	3	0.5564	7.56123100	9.29750600	28.61061000	#	H	TIP4P
1752	447	2	-1.1128	3.42483800	22.57288400	64.46835400	#	O	TIP4P
1753	447	3	0.5564	3.45062700	21.95546900	65.19935700	#	H	TIP4P
1754	447	3	0.5564	4.21140600	22.37566100	63.95978100	#	H	TIP4P
1755	448	2	-1.1128	28.58960800	4.00643000	59.29754300	#	O	TIP4P
1756	448	3	0.5564	28.33728400	3.20121100	59.74941400	#	H	TIP4P
1757	448	3	0.5564	28.80998000	3.72445400	58.40976100	#	H	TIP4P
1758	449	2	-1.1128	15.98971200	29.54537200	65.85193000	#	O	TIP4P
1759	449	3	0.5564	15.39038000	28.95625100	66.31015400	#	H	TIP4P
1760	449	3	0.5564	15.93379900	30.36901400	66.33640800	#	H	TIP4P
1761	450	2	-1.1128	25.50793600	12.63784400	15.56966600	#	O	TIP4P
1762	450	3	0.5564	25.82304300	13.33005300	14.98847100	#	H	TIP4P
1763	450	3	0.5564	24.95045500	13.09090600	16.20226500	#	H	TIP4P
1764	451	2	-1.1128	1.76470700	27.11913900	48.50099900	#	O	TIP4P
1765	451	3	0.5564	1.48387000	26.70761300	49.31831700	#	H	TIP4P
1766	451	3	0.5564	2.72047600	27.12762500	48.55262100	#	H	TIP4P
1767	452	2	-1.1128	21.92049900	3.07694300	19.35584600	#	O	TIP4P
1768	452	3	0.5564	22.29227300	2.22229400	19.13769200	#	H	TIP4P
1769	452	3	0.5564	22.49911200	3.42413400	20.03474000	#	H	TIP4P
1770	453	2	-1.1128	9.73733900	8.43483100	65.03806800	#	O	TIP4P
1771	453	3	0.5564	9.38448600	8.72714800	65.87847100	#	H	TIP4P
1772	453	3	0.5564	9.87823000	7.49479900	65.15085400	#	H	TIP4P
1773	454	2	-1.1128	16.78144900	1.80320600	37.07991400	#	O	TIP4P
1774	454	3	0.5564	16.48638100	1.45684000	37.92205300	#	H	TIP4P
1775	454	3	0.5564	16.62107100	2.74506500	37.13832400	#	H	TIP4P
1776	455	2	-1.1128	24.23565700	3.21835700	71.74801000	#	O	TIP4P
1777	455	3	0.5564	24.64449800	2.35498900	71.80864600	#	H	TIP4P
1778	455	3	0.5564	24.92611300	3.82943900	72.00507100	#	H	TIP4P
1779	456	2	-1.1128	8.64399700	14.37292900	66.15785500	#	O	TIP4P
1780	456	3	0.5564	8.50068500	14.80388800	67.00045100	#	H	TIP4P
1781	456	3	0.5564	8.93905100	13.49144900	66.38625700	#	H	TIP4P
1782	457	2	-1.1128	1.73713500	16.98386900	69.30444000	#	O	TIP4P
1783	457	3	0.5564	2.69426400	16.97231900	69.30268500	#	H	TIP4P
1784	457	3	0.5564	1.50835400	17.91331400	69.30902300	#	H	TIP4P
1785	458	2	-1.1128	13.81744600	14.36387200	62.77324000	#	O	TIP4P
1786	458	3	0.5564	14.68101600	14.72112300	62.98024400	#	H	TIP4P
1787	458	3	0.5564	13.91907400	13.41733600	62.87310500	#	H	TIP4P
1788	459	2	-1.1128	25.29923500	23.50297900	69.89845800	#	O	TIP4P
1789	459	3	0.5564	24.91032500	24.20050800	69.37078900	#	H	TIP4P
1790	459	3	0.5564	26.23183000	23.53198200	69.68478400	#	H	TIP4P
1791	460	2	-1.1128	21.95269600	13.29971100	55.00931900	#	O	TIP4P
1792	460	3	0.5564	22.23648800	14.14448400	55.35867900	#	H	TIP4P
1793	460	3	0.5564	21.77355800	12.76741300	55.78443100	#	H	TIP4P
1794	461	2	-1.1128	6.90617700	4.52308100	52.22904000	#	O	TIP4P
1795	461	3	0.5564	6.09182600	4.03442600	52.10954400	#	H	TIP4P
1796	461	3	0.5564	7.48177000	4.20390400	51.53402100	#	H	TIP4P
1797	462	2	-1.1128	30.99975700	15.51245600	39.15671500	#	O	TIP4P
1798	462	3	0.5564	30.10051600	15.83216500	39.08335200	#	H	TIP4P
1799	462	3	0.5564	31.17010800	15.08095800	38.31944400	#	H	TIP4P
1800	463	2	-1.1128	7.99683000	5.93283200	14.97464400	#	O	TIP4P
1801	463	3	0.5564	8.64268300	6.62850900	14.85160000	#	H	TIP4P
1802	463	3	0.5564	8.47186900	5.12624400	14.77468100	#	H	TIP4P
1803	464	2	-1.1128	15.07900800	31.47319900	11.41636300	#	O	TIP4P
1804	464	3	0.5564	15.39002800	32.23564600	10.92833400	#	H	TIP4P
1805	464	3	0.5564	15.66141900	30.76255900	11.14800100	#	H	TIP4P
1806	465	2	-1.1128	16.63877100	2.07739100	64.08086700	#	O	TIP4P
1807	465	3	0.5564	17.38306600	1.49470900	64.23165900	#	H	TIP4P
1808	465	3	0.5564	15.88322800	1.49228100	64.02581200	#	H	TIP4P
1809	466	2	-1.1128	19.55990600	16.65017500	60.94461200	#	O	TIP4P
1810	466	3	0.5564	19.36360500	17.57820800	61.07287600	#	H	TIP4P
1811	466	3	0.5564	19.39684700	16.49678100	60.01396000	#	H	TIP4P
1812	467	2	-1.1128	14.15832200	8.91152300	38.76586000	#	O	TIP4P
1813	467	3	0.5564	13.82371600	8.01489800	38.78413300	#	H	TIP4P
1814	467	3	0.5564	13.37404600	9.46016600	38.75426100	#	H	TIP4P
1815	468	2	-1.1128	24.51683400	9.49002800	21.45615000	#	O	TIP4P
1816	468	3	0.5564	25.12280800	8.79542200	21.19818000	#	H	TIP4P
1817	468	3	0.5564	24.39008200	9.36106900	22.39611500	#	H	TIP4P
1818	469	2	-1.1128	22.05572400	33.29179000	58.63316500	#	O	TIP4P
1819	469	3	0.5564	22.79417100	33.30105000	58.02419500	#	H	TIP4P
1820	469	3	0.5564	22.31833900	32.67844100	59.31950900	#	H	TIP4P
1821	470	2	-1.1128	26.02623400	4.44494200	20.17890900	#	O	TIP4P
1822	470	3	0.5564	26.52770200	3.63584100	20.07832600	#	H	TIP4P
1823	470	3	0.5564	25.14420600	4.21889100	19.88368200	#	H	TIP4P
1824	471	2	-1.1128	17.06542600	27.58196700	30.69591500	#	O	TIP4P
1825	471	3	0.5564	16.63454700	27.86863200	29.89068300	#	H	TIP4P
1826	471	3	0.5564	16.86561600	26.64775400	30.75552900	#	H	TIP4P
1827	472	2	-1.1128	15.60290600	17.82727500	28.90698200	#	O	TIP4P
1828	472	3	0.5564	15.92046800	16.92796800	28.98842000	#	H	TIP4P
1829	472	3	0.5564	14.65710200	17.73811600	28.78977400	#	H	TIP4P
1830	473	2	-1.1128	11.56374800	12.98161700	15.32301300	#	O	TIP4P
1831	473	3	0.5564	11.59509900	13.82182100	14.86551300	#	H	TIP4P
1832	473	3	0.5564	11.96507300	12.36165800	14.71406200	#	H	TIP4P
1833	474	2	-1.1128	10.64989800	25.11258600	15.81659600	#	O	TIP4P
1834	474	3	0.5564	10.13943000	24.66387600	16.49062400	#	H	TIP4P
1835	474	3	0.5564	10.68466800	26.02351600	16.10853900	#	H	TIP4P
1836	475	2	-1.1128	31.15459400	16.16598700	62.88265700	#	O	TIP4P
1837	475	3	0.5564	31.15240800	16.72177500	62.10334600	#	H	TIP4P
1838	475	3	0.5564	30.69004200	16.67853000	63.54426300	#	H	TIP4P
1839	476	2	-1.1128	27.72738100	14.71100200	26.27727200	#	O	TIP4P
1840	476	3	0.5564	27.77330400	14.77656200	27.23111900	#	H	TIP4P
1841	476	3	0.5564	26.79215500	14.63922200	26.08640100	#	H	TIP4P
1842	477	2	-1.1128	18.07442300	17.23334800	17.95795200	#	O	TIP4P
1843	477	3	0.5564	18.98119400	17.36603700	18.23434100	#	H	TIP4P
1844	477	3	0.5564	18.01619500	16.29713400	17.76731000	#	H	TIP4P
1845	478	2	-1.1128	31.19407500	2.36252100	37.65767000	#	O	TIP4P
1846	478	3	0.5564	31.18079000	3.02040500	38.35282800	#	H	TIP4P
1847	478	3	0.5564	30.91984200	1.55281900	38.08826300	#	H	TIP4P
1848	479	2	-1.1128	11.25786400	27.75240200	65.67932500	#	O	TIP4P
1849	479	3	0.5564	12.14696300	28.10614600	65.70381900	#	H	TIP4P
1850	479	3	0.5564	11.37020600	26.83885200	65.41657500	#	H	TIP4P
1851	480	2	-1.1128	25.01643200	24.30744400	54.04117200	#	O	TIP4P
1852	480	3	0.5564	25.66113800	24.62267300	54.67458900	#	H	TIP4P
1853	480	3	0.5564	25.52833100	24.10559200	53.25794400	#	H	TIP4P
1854	481	2	-1.1128	23.38180600	5.44782900	35.83606400	#	O	TIP4P
1855	481	3	0.5564	23.70891600	6.30924100	36.09529400	#	H	TIP4P
1856	481	3	0.5564	24.16625000	4.95691400	35.59136000	#	H	TIP4P
1857	482	2	-1.1128	17.96064000	22.78914100	50.20640900	#	O	TIP4P
1858	482	3	0.5564	17.41590600	22.38937500	50.88440900	#	H	TIP4P
1859	482	3	0.5564	17.89117500	23.73026500	50.36669600	#	H	TIP4P
1860	483	2	-1.1128	24.21563800	30.14153800	47.54041300	#	O	TIP4P
1861	483	3	0.5564	24.95075000	30.75437100	47.52371900	#	H	TIP4P
1862	483	3	0.5564	23.44291900	30.69647700	47.64614700	#	H	TIP4P
1863	484	2	-1.1128	2.52758600	20.46633900	38.94111600	#	O	TIP4P
1864	484	3	0.5564	3.02365500	19.65431900	39.04489400	#	H	TIP4P
1865	484	3	0.5564	1.61178500	20.18816300	38.92858900	#	H	TIP4P
1866	485	2	-1.1128	3.97682200	30.05999500	60.50234200	#	O	TIP4P
1867	485	3	0.5564	4.48057000	29.70942000	61.23689400	#	H	TIP4P
1868	485	3	0.5564	3.72802900	29.28913700	59.99233100	#	H	TIP4P
1869	486	2	-1.1128	22.77249600	16.51860900	33.23607800	#	O	TIP4P
1870	486	3	0.5564	22.91901300	15.73812100	32.70165900	#	H	TIP4P
1871	486	3	0.5564	23.30677000	16.37799900	34.01775000	#	H	TIP4P
1872	487	2	-1.1128	16.92150900	11.25264600	16.44588800	#	O	TIP4P
1873	487	3	0.5564	16.69654400	10.56284000	15.82155600	#	H	TIP4P
1874	487	3	0.5564	17.49162300	11.84424500	15.95475500	#	H	TIP4P
1875	488	2	-1.1128	27.13918500	18.45954100	53.12863500	#	O	TIP4P
1876	488	3	0.5564	28.01206000	18.82029800	53.28411500	#	H	TIP4P
1877	488	3	0.5564	27.06872700	17.72862600	53.74266400	#	H	TIP4P
1878	489	2	-1.1128	22.15689300	20.92295900	53.52068400	#	O	TIP4P
1879	489	3	0.5564	22.92183000	21.25276200	53.99220600	#	H	TIP4P
1880	489	3	0.5564	22.27140900	19.97267100	53.51240100	#	H	TIP4P
1881	490	2	-1.1128	12.36788000	32.90621600	22.91304700	#	O	TIP4P
1882	490	3	0.5564	12.82423200	33.30595500	22.17265300	#	H	TIP4P
1883	490	3	0.5564	11.49693100	33.30311500	22.90077300	#	H	TIP4P
1884	491	2	-1.1128	1.55138600	10.75051300	43.93270700	#	O	TIP4P
1885	491	3	0.5564	1.48060600	11.62867600	43.55847100	#	H	TIP4P
1886	491	3	0.5564	2.48012200	10.65343400	44.14307800	#	H	TIP4P
1887	492	2	-1.1128	17.02770200	12.13427800	49.21244300	#	O	TIP4P
1888	492	3	0.5564	16.09921600	12.36430900	49.17735800	#	H	TIP4P
1889	492	3	0.5564	17.15446300	11.53510100	48.47681400	#	H	TIP4P
1890	493	2	-1.1128	27.55088600	11.23479300	55.84795600	#	O	TIP4P
1891	493	3	0.5564	28.37933100	10.99706700	56.26436600	#	H	TIP4P
1892	493	3	0.5564	27.74298200	12.04572500	55.37708300	#	H	TIP4P
1893	494	2	-1.1128	2.98815500	32.73455100	61.35347800	#	O	TIP4P
1894	494	3	0.5564	2.22740600	33.30455100	61.46570100	#	H	TIP4P
1895	494	3	0.5564	3.73772300	33.32974300	61.36470000	#	H	TIP4P
1896	495	2	-1.1128	15.20659000	3.30144100	17.38930700	#	O	TIP4P
1897	495	3	0.5564	14.80750200	4.05628600	16.95667800	#	H	TIP4P
1898	495	3	0.5564	14.60449000	2.57828400	17.21394900	#	H	TIP4P
1899	496	2	-1.1128	27.73462400	14.98738700	71.63133600	#	O	TIP4P
1900	496	3	0.5564	28.55963400	15.35580300	71.94734200	#	H	TIP4P
1901	496	3	0.5564	27.06012900	15.55696800	72.00128800	#	H	TIP4P
1902	497	2	-1.1128	12.79531900	18.97761000	22.40709100	#	O	TIP4P
1903	497	3	0.5564	12.91132400	19.19425800	23.33220600	#	H	TIP4P
1904	497	3	0.5564	13.67266000	19.05134100	22.03150000	#	H	TIP4P
1905	498	2	-1.1128	10.66595200	16.83002500	24.86523300	#	O	TIP4P
1906	498	3	0.5564	11.06699400	16.42246600	25.63288700	#	H	TIP4P
1907	498	3	0.5564	9.75496300	16.97673300	25.11980300	#	H	TIP4P
1908	499	2	-1.1128	16.33275800	2.42708300	71.20098500	#	O	TIP4P
1909	499	3	0.5564	15.38278200	2.47598400	71.09427800	#	H	TIP4P
1910	499	3	0.5564	16.52904400	1.49052900	71.17708400	#	H	TIP4P
1911	500	2	-1.1128	13.68985800	23.97023700	25.54303700	#	O	TIP4P
1912	500	3	0.5564	12.87378100	24.39873100	25.28488200	#	H	TIP4P
1913	500	3	0.5564	13.86548300	23.34498200	24.83987100	#	H	TIP4P
1914	501	2	-1.1128	25.63844900	14.85968000	68.61715600	#	O	TIP4P
1915	501	3	0.5564	25.99299300	14.91351400	69.50464300	#	H	TIP4P
1916	501	3	0.5564	25.02552300	14.12509300	68.64773600	#	H	TIP4P
1917	502	2	-1.1128	21.28306400	4.74632600	68.42138200	#	O	TIP4P
1918	502	3	0.5564	20.88942100	5.60741800	68.28067600	#	H	TIP4P
1919	502	3	0.5564	22.07827700	4.75603400	67.88867700	#	H	TIP4P
1920	503	2	-1.1128	18.66509000	2.46817800	69.70153500	#	O	TIP4P
1921	503	3	0.5564	18.65250400	1.55014200	69.43082500	#	H	TIP4P
1922	503	3	0.5564	19.45709200	2.82587200	69.30026300	#	H	TIP4P
1923	504	2	-1.1128	22.08937700	33.20140400	35.92821300	#	O	TIP4P
1924	504	3	0.5564	21.14039800	33.32483100	35.94906400	#	H	TIP4P
1925	504	3	0.5564	22.20721500	32.25211500	35.89362100	#	H	TIP4P
1926	505	2	-1.1128	10.22949300	22.83109000	53.00541000	#	O	TIP4P
1927	505	3	0.5564	9.27980600	22.73323400	53.07433000	#	H	TIP4P
1928	505	3	0.5564	10.37441400	23.77722800	53.01266200	#	H	TIP4P
1929	506	2	-1.1128	23.95295800	25.82661400	29.70333400	#	O	TIP4P
1930	506	3	0.5564	24.65760100	26.45933000	29.56411700	#	H	TIP4P
1931	506	3	0.5564	23.19480400	26.36026300	29.94134900	#	H	TIP4P
1932	507	2	-1.1128	6.21100800	17.30500900	20.71209700	#	O	TIP4P
1933	507	3	0.5564	6.53020500	16.51129900	21.14147900	#	H	TIP4P
1934	507	3	0.5564	6.95498300	17.61393200	20.19508600	#	H	TIP4P
1935	508	2	-1.1128	13.46145200	9.14234600	13.87500700	#	O	TIP4P
1936	508	3	0.5564	12.84800700	9.87387300	13.94417500	#	H	TIP4P
1937	508	3	0.5564	14.32323400	9.55582100	13.82400600	#	H	TIP4P
1938	509	2	-1.1128	17.82765000	3.21651300	32.03334600	#	O	TIP4P
1939	509	3	0.5564	17.66908200	3.45530800	32.94661800	#	H	TIP4P
1940	509	3	0.5564	18.57667700	3.75205300	31.77183800	#	H	TIP4P
1941	510	2	-1.1128	11.12828400	15.68099500	67.45754900	#	O	TIP4P
1942	510	3	0.5564	11.24942700	14.81553200	67.06699700	#	H	TIP4P
1943	510	3	0.5564	11.94284800	15.84618200	67.93234200	#	H	TIP4P
1944	511	2	-1.1128	15.54724000	32.16502900	20.26524700	#	O	TIP4P
1945	511	3	0.5564	15.76286500	31.24554000	20.42106000	#	H	TIP4P
1946	511	3	0.5564	14.59801600	32.21160800	20.37942000	#	H	TIP4P
1947	512	2	-1.1128	11.71517100	1.65385800	26.22561100	#	O	TIP4P
1948	512	3	0.5564	11.83504000	2.60350300	26.23176300	#	H	TIP4P
1949	512	3	0.5564	11.00008500	1.49822700	26.84258900	#	H	TIP4P
1950	513	2	-1.1128	15.78223300	3.49438700	55.36452900	#	O	TIP4P
1951	513	3	0.5564	15.50165200	2.58194700	55.29410200	#	H	TIP4P
1952	513	3	0.5564	14.96690600	3.99558400	55.38113100	#	H	TIP4P
1953	514	2	-1.1128	14.65011600	4.85713200	34.06017300	#	O	TIP4P
1954	514	3	0.5564	13.87788200	4.32442500	33.87014800	#	H	TIP4P
1955	514	3	0.5564	14.74475100	4.81177800	35.01160300	#	H	TIP4P
1956	515	2	-1.1128	5.02764900	9.61243800	20.88796000	#	O	TIP4P
1957	515	3	0.5564	4.33294800	9.22217700	21.41835600	#	H	TIP4P
1958	515	3	0.5564	5.08893300	10.51542900	21.19954000	#	H	TIP4P
1959	516	2	-1.1128	28.03213700	29.20160000	36.59461700	#	O	TIP4P
1960	516	3	0.5564	28.83593200	29.33525100	37.09689500	#	H	TIP4P
1961	516	3	0.5564	28.16602100	29.70219600	35.78981300	#	H	TIP4P
1962	517	2	-1.1128	11.47339200	23.38580000	39.72238700	#	O	TIP4P
1963	517	3	0.5564	11.64930400	23.03750500	38.84832900	#	H	TIP4P
1964	517	3	0.5564	12.28557000	23.23893300	40.20718400	#	H	TIP4P
1965	518	2	-1.1128	4.69998400	13.95140900	21.56733500	#	O	TIP4P
1966	518	3	0.5564	5.41092100	13.31993200	21.67704800	#	H	TIP4P
1967	518	3	0.5564	4.31586800	14.03437700	22.44014800	#	H	TIP4P
1968	519	2	-1.1128	5.74568100	16.32295000	49.47589400	#	O	TIP4P
1969	519	3	0.5564	5.93192400	15.87051700	48.65318600	#	H	TIP4P
1970	519	3	0.5564	4.81862400	16.55415700	49.41809900	#	H	TIP4P
1971	520	2	-1.1128	9.75047400	5.36727500	50.50397300	#	O	TIP4P
1972	520	3	0.5564	9.28778300	6.17100000	50.74098400	#	H	TIP4P
1973	520	3	0.5564	10.16354300	5.07921200	51.31799100	#	H	TIP4P
1974	521	2	-1.1128	1.92430300	29.89975700	62.32483100	#	O	TIP4P
1975	521	3	0.5564	1.45876900	30.72747900	62.44477800	#	H	TIP4P
1976	521	3	0.5564	1.49047100	29.48639600	61.57840400	#	H	TIP4P
1977	522	2	-1.1128	8.72868700	28.60182100	67.32594100	#	O	TIP4P
1978	522	3	0.5564	9.52541100	28.28063600	67.74820000	#	H	TIP4P
1979	522	3	0.5564	8.66141800	28.09023800	66.51972200	#	H	TIP4P
1980	523	2	-1.1128	9.46698200	30.61163200	32.67502400	#	O	TIP4P
1981	523	3	0.5564	8.71090500	30.14174900	33.02686000	#	H	TIP4P
1982	523	3	0.5564	10.08146600	30.66010100	33.40734300	#	H	TIP4P
1983	524	2	-1.1128	8.66352100	33.38995000	48.15695600	#	O	TIP4P
1984	524	3	0.5564	9.61712300	33.32007900	48.11232500	#	H	TIP4P
1985	524	3	0.5564	8.45342800	33.22335800	49.07583600	#	H	TIP4P
1986	525	2	-1.1128	5.90916600	17.06104800	16.96585300	#	O	TIP4P
1987	525	3	0.5564	6.53326300	16.74707900	17.62019100	#	H	TIP4P
1988	525	3	0.5564	6.21341100	17.94189000	16.74725500	#	H	TIP4P
1989	526	2	-1.1128	10.16440100	23.42717400	22.58236800	#	O	TIP4P
1990	526	3	0.5564	9.78716000	24.18923900	22.14284800	#	H	TIP4P
1991	526	3	0.5564	11.02892900	23.71995900	22.87064000	#	H	TIP4P
1992	527	2	-1.1128	27.95837500	8.73026500	11.93414700	#	O	TIP4P
1993	527	3	0.5564	27.09006200	8.39331200	11.71340300	#	H	TIP4P
1994	527	3	0.5564	27.88372900	9.00583200	12.84777800	#	H	TIP4P
1995	528	2	-1.1128	17.30712400	9.68852400	12.18338300	#	O	TIP4P
1996	528	3	0.5564	17.69912200	9.89957400	11.33601800	#	H	TIP4P
1997	528	3	0.5564	16.44104900	10.09515100	12.15510100	#	H	TIP4P
1998	529	2	-1.1128	13.03384400	17.95637300	12.04320100	#	O	TIP4P
1999	529	3	0.5564	12.81001100	17.07594900	11.74156300	#	H	TIP4P
2000	529	3	0.5564	12.18954100	18.39212100	12.15942000	#	H	TIP4P
2001	530	2	-1.1128	20.77393900	23.22250100	50.22215200	#	O	TIP4P
2002	530	3	0.5564	20.60875300	22.63448300	49.48514400	#	H	TIP4P
2003	530	3	0.5564	21.59312300	22.90588900	50.60284200	#	H	TIP4P
2004	531	2	-1.1128	30.48814200	18.60196400	16.33566600	#	O	TIP4P
2005	531	3	0.5564	31.14989300	17.91041000	16.34407600	#	H	TIP4P
2006	531	3	0.5564	30.99030600	19.41527700	16.38650900	#	H	TIP4P
2007	532	2	-1.1128	26.11707900	7.43909700	34.54233100	#	O	TIP4P
2008	532	3	0.5564	26.60554000	7.40068800	33.72004000	#	H	TIP4P
2009	532	3	0.5564	25.23476400	7.70662700	34.28507900	#	H	TIP4P
2010	533	2	-1.1128	13.95290100	18.68158400	31.55954000	#	O	TIP4P
2011	533	3	0.5564	13.80947900	17.73705000	31.50023300	#	H	TIP4P
2012	533	3	0.5564	14.88614700	18.79441000	31.37911200	#	H	TIP4P
2013	534	2	-1.1128	12.70945300	32.52360300	49.35771300	#	O	TIP4P
2014	534	3	0.5564	12.15915800	33.30435600	49.29581700	#	H	TIP4P
2015	534	3	0.5564	13.60060300	32.86380200	49.43738700	#	H	TIP4P
2016	535	2	-1.1128	27.14288500	17.78620900	15.97584600	#	O	TIP4P
2017	535	3	0.5564	27.65594000	18.59361700	16.00899900	#	H	TIP4P
2018	535	3	0.5564	26.23800200	18.08091400	15.87305400	#	H	TIP4P
2019	536	2	-1.1128	19.66244800	19.44449100	33.69501800	#	O	TIP4P
2020	536	3	0.5564	19.50166200	18.73037600	33.07823700	#	H	TIP4P
2021	536	3	0.5564	18.83925600	19.93244500	33.71709700	#	H	TIP4P
2022	537	2	-1.1128	20.85711200	5.42653000	59.77542300	#	O	TIP4P
2023	537	3	0.5564	20.53680200	4.76275900	59.16465100	#	H	TIP4P
2024	537	3	0.5564	21.42827300	5.98360400	59.24658000	#	H	TIP4P
2025	538	2	-1.1128	1.92974600	5.60775200	36.76111100	#	O	TIP4P
2026	538	3	0.5564	1.47225500	6.20740800	36.17175000	#	H	TIP4P
2027	538	3	0.5564	1.48697500	4.76780700	36.63996500	#	H	TIP4P
2028	539	2	-1.1128	15.94955000	24.06024200	37.00300000	#	O	TIP4P
2029	539	3	0.5564	15.26809400	24.69174000	37.23334500	#	H	TIP4P
2030	539	3	0.5564	16.58766900	24.56792800	36.50171100	#	H	TIP4P
2031	540	2	-1.1128	10.67937200	7.38991800	52.77515900	#	O	TIP4P
2032	540	3	0.5564	10.72944900	7.88069400	53.59544100	#	H	TIP4P
2033	540	3	0.5564	11.56027100	7.03584100	52.65318200	#	H	TIP4P
2034	541	2	-1.1128	23.80336300	27.19940600	14.19863700	#	O	TIP4P
2035	541	3	0.5564	24.46900800	27.87527100	14.32652400	#	H	TIP4P
2036	541	3	0.5564	22.99180900	27.68607300	14.05452700	#	H	TIP4P
2037	542	2	-1.1128	10.22397600	30.44807200	12.36680800	#	O	TIP4P
2038	542	3	0.5564	11.08781700	30.38492200	12.77426600	#	H	TIP4P
2039	542	3	0.5564	9.67197300	30.85264200	13.03602300	#	H	TIP4P
2040	543	2	-1.1128	25.50207500	2.52950400	37.24257300	#	O	TIP4P
2041	543	3	0.5564	25.47441800	1.57317700	37.21247600	#	H	TIP4P
2042	543	3	0.5564	24.58277000	2.79600600	37.25182000	#	H	TIP4P
2043	544	2	-1.1128	18.70855600	1.67052100	42.26212700	#	O	TIP4P
2044	544	3	0.5564	17.77085700	1.47830700	42.26467800	#	H	TIP4P
2045	544	3	0.5564	18.99488200	1.45702700	41.37405600	#	H	TIP4P
2046	545	2	-1.1128	4.15965100	26.40416100	35.61551800	#	O	TIP4P
2047	545	3	0.5564	4.56834600	26.12213600	34.79718900	#	H	TIP4P
2048	545	3	0.5564	4.01582200	25.59351400	36.10377600	#	H	TIP4P
2049	546	2	-1.1128	25.54247500	30.84992900	57.06049300	#	O	TIP4P
2050	546	3	0.5564	25.46947600	30.33075200	56.25964400	#	H	TIP4P
2051	546	3	0.5564	25.90168100	31.68858300	56.77090500	#	H	TIP4P
2052	547	2	-1.1128	24.07289500	6.03372500	25.57818300	#	O	TIP4P
2053	547	3	0.5564	23.60690300	5.43698700	24.99253200	#	H	TIP4P
2054	547	3	0.5564	24.78524700	6.38603100	25.04464100	#	H	TIP4P
2055	548	2	-1.1128	31.12319600	9.08344600	56.45080600	#	O	TIP4P
2056	548	3	0.5564	30.44793400	9.24874700	55.79283200	#	H	TIP4P
2057	548	3	0.5564	31.17437800	8.12931000	56.50769900	#	H	TIP4P
2058	549	2	-1.1128	2.84101900	15.53394700	39.21994300	#	O	TIP4P
2059	549	3	0.5564	2.83034200	16.43196600	38.88876200	#	H	TIP4P
2060	549	3	0.5564	2.09173900	15.11359300	38.79790800	#	H	TIP4P
2061	550	2	-1.1128	27.60924800	1.49547700	62.54513000	#	O	TIP4P
2062	550	3	0.5564	27.11243200	1.49740900	63.36330000	#	H	TIP4P
2063	550	3	0.5564	27.15458600	2.12616600	61.98678900	#	H	TIP4P
2064	551	2	-1.1128	20.01806100	17.48117000	70.95918600	#	O	TIP4P
2065	551	3	0.5564	19.79548800	17.48012700	71.89014900	#	H	TIP4P
2066	551	3	0.5564	19.27623100	17.91298400	70.53556400	#	H	TIP4P
2067	552	2	-1.1128	13.46518800	14.99522800	53.21169600	#	O	TIP4P
2068	552	3	0.5564	13.91634700	15.27803900	54.00712400	#	H	TIP4P
2069	552	3	0.5564	14.15116800	14.96425100	52.54483500	#	H	TIP4P
2070	553	2	-1.1128	23.84231000	10.24468700	52.49463700	#	O	TIP4P
2071	553	3	0.5564	24.67358100	9.77015800	52.48807500	#	H	TIP4P
2072	553	3	0.5564	23.17554200	9.56174800	52.42221700	#	H	TIP4P
2073	554	2	-1.1128	3.52106000	12.58747100	69.29750300	#	O	TIP4P
2074	554	3	0.5564	3.90926800	13.46223000	69.31548900	#	H	TIP4P
2075	554	3	0.5564	3.10875300	12.52555900	68.43587600	#	H	TIP4P
2076	555	2	-1.1128	4.32940500	28.32326900	42.00225500	#	O	TIP4P
2077	555	3	0.5564	4.22987300	28.19519700	42.94561200	#	H	TIP4P
2078	555	3	0.5564	4.97398700	27.66696800	41.73765400	#	H	TIP4P
2079	556	2	-1.1128	15.13500100	33.33588500	54.85769000	#	O	TIP4P
2080	556	3	0.5564	15.38506800	33.30785900	55.78122300	#	H	TIP4P
2081	556	3	0.5564	14.22682800	33.03371100	54.84569300	#	H	TIP4P
2082	557	2	-1.1128	18.31622700	10.89596400	51.58251000	#	O	TIP4P
2083	557	3	0.5564	17.99455900	10.59963900	52.43395100	#	H	TIP4P
2084	557	3	0.5564	18.29376600	11.85136300	51.63673400	#	H	TIP4P
2085	558	2	-1.1128	11.87146400	20.94465200	20.72208300	#	O	TIP4P
2086	558	3	0.5564	11.48797400	21.23921800	21.54815700	#	H	TIP4P
2087	558	3	0.5564	11.28828500	20.24751500	20.42186100	#	H	TIP4P
2088	559	2	-1.1128	6.75593800	24.44734800	27.16962300	#	O	TIP4P
2089	559	3	0.5564	5.93564400	24.93827000	27.12120400	#	H	TIP4P
2090	559	3	0.5564	7.34625600	24.90690300	26.57249200	#	H	TIP4P
2091	560	2	-1.1128	21.18149800	8.99075700	33.69347300	#	O	TIP4P
2092	560	3	0.5564	22.11278000	8.77172300	33.72461600	#	H	TIP4P
2093	560	3	0.5564	21.16187700	9.94390700	33.60773400	#	H	TIP4P
2094	561	2	-1.1128	20.16851700	29.83005900	41.28293100	#	O	TIP4P
2095	561	3	0.5564	20.00406300	30.37177800	40.51109700	#	H	TIP4P
2096	561	3	0.5564	19.93952700	30.39163300	42.02349100	#	H	TIP4P
2097	562	2	-1.1128	9.92479000	5.10213300	17.75033100	#	O	TIP4P
2098	562	3	0.5564	9.84682500	4.34478700	17.17017400	#	H	TIP4P
2099	562	3	0.5564	9.34782100	5.76090000	17.36385600	#	H	TIP4P
2100	563	2	-1.1128	21.82452400	29.97970000	70.02462500	#	O	TIP4P
2101	563	3	0.5564	22.71886300	29.68988400	69.84463100	#	H	TIP4P
2102	563	3	0.5564	21.70521900	29.82245700	70.96125300	#	H	TIP4P
2103	564	2	-1.1128	2.29118600	23.05185000	40.41487000	#	O	TIP4P
2104	564	3	0.5564	2.92656500	22.44995100	40.80248300	#	H	TIP4P
2105	564	3	0.5564	1.47456700	22.55328400	40.38664600	#	H	TIP4P
2106	565	2	-1.1128	5.14568200	16.08513400	65.23845100	#	O	TIP4P
2107	565	3	0.5564	4.55093700	15.38718600	64.96389900	#	H	TIP4P
2108	565	3	0.5564	4.57841000	16.84394000	65.37500200	#	H	TIP4P
2109	566	2	-1.1128	30.56472000	10.28053600	28.55245700	#	O	TIP4P
2110	566	3	0.5564	31.15017400	10.20035500	29.30548200	#	H	TIP4P
2111	566	3	0.5564	31.15064000	10.39063500	27.80358700	#	H	TIP4P
2112	567	2	-1.1128	8.83617800	18.45797800	28.47871200	#	O	TIP4P
2113	567	3	0.5564	9.10812000	17.69019800	27.97592600	#	H	TIP4P
2114	567	3	0.5564	9.48324300	18.52664000	29.18072600	#	H	TIP4P
2115	568	2	-1.1128	22.08067700	27.38216600	56.15997600	#	O	TIP4P
2116	568	3	0.5564	21.71987600	27.57289100	55.29413600	#	H	TIP4P
2117	568	3	0.5564	22.63522000	26.61374100	56.02493800	#	H	TIP4P
2118	569	2	-1.1128	25.34305700	10.90727500	48.10388800	#	O	TIP4P
2119	569	3	0.5564	25.95074800	11.63038400	48.25899300	#	H	TIP4P
2120	569	3	0.5564	24.82939200	11.18403500	47.34508500	#	H	TIP4P
2121	570	2	-1.1128	18.02583000	15.59651500	35.04848600	#	O	TIP4P
2122	570	3	0.5564	17.60479400	16.18010800	35.67966000	#	H	TIP4P
2123	570	3	0.5564	18.10172400	14.76039900	35.50824900	#	H	TIP4P
2124	571	2	-1.1128	25.31329100	33.04021800	23.62178400	#	O	TIP4P
2125	571	3	0.5564	25.12092800	33.30160300	24.52228700	#	H	TIP4P
2126	571	3	0.5564	26.25001600	32.84331100	23.62394200	#	H	TIP4P
2127	572	2	-1.1128	18.24125600	27.63329400	63.63599800	#	O	TIP4P
2128	572	3	0.5564	19.01116000	28.17891100	63.47543200	#	H	TIP4P
2129	572	3	0.5564	17.75256800	28.10112600	64.31316100	#	H	TIP4P
2130	573	2	-1.1128	17.02552800	8.35037600	51.18454100	#	O	TIP4P
2131	573	3	0.5564	17.78119400	7.79877100	50.98222600	#	H	TIP4P
2132	573	3	0.5564	16.88843200	8.86962500	50.39219200	#	H	TIP4P
2133	574	2	-1.1128	28.03406300	33.30359500	64.53324200	#	O	TIP4P
2134	574	3	0.5564	28.27251000	32.37767300	64.57844300	#	H	TIP4P
2135	574	3	0.5564	27.07697900	33.30449000	64.51835900	#	H	TIP4P
2136	575	2	-1.1128	30.93739200	21.82706100	30.27668400	#	O	TIP4P
2137	575	3	0.5564	31.13197500	22.02835000	31.19202700	#	H	TIP4P
2138	575	3	0.5564	31.03886500	22.66240000	29.82045600	#	H	TIP4P
2139	576	2	-1.1128	20.25309100	10.70961900	54.08439300	#	O	TIP4P
2140	576	3	0.5564	19.64979900	10.18166100	54.60739500	#	H	TIP4P
2141	576	3	0.5564	19.90435000	11.59923300	54.14093400	#	H	TIP4P
2142	577	2	-1.1128	31.14984700	24.73524000	59.18702900	#	O	TIP4P
2143	577	3	0.5564	31.16664600	24.45391700	60.10180100	#	H	TIP4P
2144	577	3	0.5564	31.16761400	25.69132700	59.22961400	#	H	TIP4P
2145	578	2	-1.1128	25.42086700	17.25831300	67.19555400	#	O	TIP4P
2146	578	3	0.5564	25.17776400	18.15764800	67.41539400	#	H	TIP4P
2147	578	3	0.5564	24.58909900	16.82462100	67.00501700	#	H	TIP4P
2148	579	2	-1.1128	20.71741900	1.48262600	63.61030300	#	O	TIP4P
2149	579	3	0.5564	20.55221500	2.07560600	64.34332000	#	H	TIP4P
2150	579	3	0.5564	19.89684400	1.47578700	63.11751400	#	H	TIP4P
2151	580	2	-1.1128	13.41955600	12.03554200	50.77348100	#	O	TIP4P
2152	580	3	0.5564	14.06578400	11.33203200	50.71268500	#	H	TIP4P
2153	580	3	0.5564	13.94081900	12.83726200	50.81546200	#	H	TIP4P
2154	581	2	-1.1128	15.94005000	17.96969700	33.83903700	#	O	TIP4P
2155	581	3	0.5564	16.89165400	17.99154900	33.73802900	#	H	TIP4P
2156	581	3	0.5564	15.67448100	17.14464800	33.43283700	#	H	TIP4P
2157	582	2	-1.1128	31.17537200	10.18364900	24.38361900	#	O	TIP4P
2158	582	3	0.5564	31.13415900	10.63367500	23.53981200	#	H	TIP4P
2159	582	3	0.5564	30.75692500	9.33749400	24.22501500	#	H	TIP4P
2160	583	2	-1.1128	12.23052200	20.99510600	36.28406200	#	O	TIP4P
2161	583	3	0.5564	12.67507100	21.76589500	36.63689800	#	H	TIP4P
2162	583	3	0.5564	11.30276100	21.15154200	36.46018100	#	H	TIP4P
2163	584	2	-1.1128	15.85072500	29.08791700	44.67095600	#	O	TIP4P
2164	584	3	0.5564	16.25268700	28.84934700	43.83564600	#	H	TIP4P
2165	584	3	0.5564	16.14754500	28.41312800	45.28152000	#	H	TIP4P
2166	585	2	-1.1128	27.64487000	1.57448000	45.20470900	#	O	TIP4P
2167	585	3	0.5564	28.00793500	2.38532600	45.56100200	#	H	TIP4P
2168	585	3	0.5564	28.09237000	1.45914100	44.36645300	#	H	TIP4P
2169	586	2	-1.1128	3.68832200	23.94251900	48.92676100	#	O	TIP4P
2170	586	3	0.5564	4.14981300	24.64983600	48.47624900	#	H	TIP4P
2171	586	3	0.5564	2.84319500	24.32226400	49.16714700	#	H	TIP4P
2172	587	2	-1.1128	26.48869300	15.14036900	53.02329400	#	O	TIP4P
2173	587	3	0.5564	26.11672800	14.96626300	52.15867800	#	H	TIP4P
2174	587	3	0.5564	26.32758300	14.33805500	53.51985100	#	H	TIP4P
2175	588	2	-1.1128	5.01397700	22.19639100	43.15714100	#	O	TIP4P
2176	588	3	0.5564	5.24190400	22.51403900	42.28342400	#	H	TIP4P
2177	588	3	0.5564	5.60148000	22.67043200	43.74566200	#	H	TIP4P
2178	589	2	-1.1128	24.59028400	26.92797300	69.23211600	#	O	TIP4P
2179	589	3	0.5564	23.95234400	27.46603800	68.76333900	#	H	TIP4P
2180	589	3	0.5564	24.18170800	26.75569100	70.08041700	#	H	TIP4P
2181	590	2	-1.1128	3.90137500	24.60984400	61.83725600	#	O	TIP4P
2182	590	3	0.5564	3.76405900	24.54903900	60.89191000	#	H	TIP4P
2183	590	3	0.5564	4.75717500	24.20621700	61.98190500	#	H	TIP4P
2184	591	2	-1.1128	20.87567400	32.44169600	56.20717200	#	O	TIP4P
2185	591	3	0.5564	20.69447100	33.38073200	56.24727900	#	H	TIP4P
2186	591	3	0.5564	21.48192800	32.34542300	55.47272000	#	H	TIP4P
2187	592	2	-1.1128	11.25698000	23.62539900	60.17974200	#	O	TIP4P
2188	592	3	0.5564	11.57941900	24.51361400	60.33251400	#	H	TIP4P
2189	592	3	0.5564	11.68318600	23.35175300	59.36752500	#	H	TIP4P
2190	593	2	-1.1128	31.15257900	2.49940900	54.26971200	#	O	TIP4P
2191	593	3	0.5564	30.28104000	2.12728600	54.13489400	#	H	TIP4P
2192	593	3	0.5564	31.01863200	3.44619200	54.22621800	#	H	TIP4P
2193	594	2	-1.1128	1.47676000	25.78540800	68.18425500	#	O	TIP4P
2194	594	3	0.5564	2.34798900	25.72436100	68.57600100	#	H	TIP4P
2195	594	3	0.5564	1.51061000	25.19607700	67.43074700	#	H	TIP4P
2196	595	2	-1.1128	7.20514000	1.50098000	48.46175200	#	O	TIP4P
2197	595	3	0.5564	7.56772800	2.35962800	48.67966400	#	H	TIP4P
2198	595	3	0.5564	7.15235700	1.49828900	47.50601300	#	H	TIP4P
2199	596	2	-1.1128	27.22563500	27.25965800	67.72150300	#	O	TIP4P
2200	596	3	0.5564	27.14243500	26.50256000	68.30125500	#	H	TIP4P
2201	596	3	0.5564	26.73467200	27.01608700	66.93673600	#	H	TIP4P
2202	597	2	-1.1128	23.17892700	24.56567800	33.72651400	#	O	TIP4P
2203	597	3	0.5564	22.25132900	24.79400300	33.66600700	#	H	TIP4P
2204	597	3	0.5564	23.52607400	25.14880500	34.40155700	#	H	TIP4P
2205	598	2	-1.1128	23.53093800	4.85813000	60.61468800	#	O	TIP4P
2206	598	3	0.5564	23.95629900	4.07892900	60.25671400	#	H	TIP4P
2207	598	3	0.5564	23.97965300	5.59133300	60.19361700	#	H	TIP4P
2208	599	2	-1.1128	4.85651400	12.71506500	71.97312000	#	O	TIP4P
2209	599	3	0.5564	3.91243600	12.86983400	72.00467600	#	H	TIP4P
2210	599	3	0.5564	5.23254100	13.56850400	71.75753700	#	H	TIP4P
2211	600	2	-1.1128	24.41850000	22.24180300	64.20754500	#	O	TIP4P
2212	600	3	0.5564	24.00635300	21.49198200	64.63665500	#	H	TIP4P
2213	600	3	0.5564	24.06347700	23.00455600	64.66405000	#	H	TIP4P
2214	601	2	-1.1128	3.96246400	20.18743500	68.50610300	#	O	TIP4P
2215	601	3	0.5564	3.79553500	20.62643400	67.67204900	#	H	TIP4P
2216	601	3	0.5564	3.86247200	19.25565800	68.31110100	#	H	TIP4P
2217	602	2	-1.1128	15.80534200	1.61450500	33.87500700	#	O	TIP4P
2218	602	3	0.5564	15.75877200	2.27012100	34.57087400	#	H	TIP4P
2219	602	3	0.5564	14.89783900	1.49830100	33.59364100	#	H	TIP4P
2220	603	2	-1.1128	13.25029500	21.34479600	33.36256500	#	O	TIP4P
2221	603	3	0.5564	12.75543600	20.54378000	33.19017200	#	H	TIP4P
2222	603	3	0.5564	13.28163300	21.79400400	32.51789900	#	H	TIP4P
2223	604	2	-1.1128	30.46687000	30.43968900	49.78870600	#	O	TIP4P
2224	604	3	0.5564	29.73314300	29.89292200	50.06964000	#	H	TIP4P
2225	604	3	0.5564	31.21800900	29.84646600	49.77824400	#	H	TIP4P
2226	605	2	-1.1128	15.47807500	31.90395700	70.56207800	#	O	TIP4P
2227	605	3	0.5564	14.71916500	32.46050000	70.73685800	#	H	TIP4P
2228	605	3	0.5564	15.31704100	31.11101100	71.07348300	#	H	TIP4P
2229	606	2	-1.1128	27.47913000	1.85068500	24.30680900	#	O	TIP4P
2230	606	3	0.5564	27.15305000	2.50225100	24.92758700	#	H	TIP4P
2231	606	3	0.5564	28.26365700	1.49392700	24.72331000	#	H	TIP4P
2232	607	2	-1.1128	18.32955500	23.09152400	63.90059600	#	O	TIP4P
2233	607	3	0.5564	18.25897100	23.24073400	62.95773600	#	H	TIP4P
2234	607	3	0.5564	18.70970100	22.21640200	63.97728500	#	H	TIP4P
2235	608	2	-1.1128	16.01979000	27.91571800	22.80446600	#	O	TIP4P
2236	608	3	0.5564	16.50402400	28.64885100	22.42464300	#	H	TIP4P
2237	608	3	0.5564	16.56247000	27.14887100	22.62095400	#	H	TIP4P
2238	609	2	-1.1128	28.34076700	6.32060400	40.63283500	#	O	TIP4P
2239	609	3	0.5564	27.81909000	7.10391900	40.45819100	#	H	TIP4P
2240	609	3	0.5564	28.60739300	6.40893000	41.54789800	#	H	TIP4P
2241	610	2	-1.1128	6.39429500	21.51626300	67.78451200	#	O	TIP4P
2242	610	3	0.5564	6.12413400	21.88040400	68.62751000	#	H	TIP4P
2243	610	3	0.5564	7.20535200	21.97823700	67.57238400	#	H	TIP4P
2244	611	2	-1.1128	18.13013500	4.10248700	58.00981000	#	O	TIP4P
2245	611	3	0.5564	17.85399400	4.21083600	58.91988700	#	H	TIP4P
2246	611	3	0.5564	17.33671400	4.25966100	57.49794000	#	H	TIP4P
2247	612	2	-1.1128	15.94331400	16.90640500	67.19435700	#	O	TIP4P
2248	612	3	0.5564	16.35575100	16.78803400	68.04999500	#	H	TIP4P
2249	612	3	0.5564	15.49218600	16.07857000	67.02881400	#	H	TIP4P
2250	613	2	-1.1128	1.59581400	18.48791100	33.43188300	#	O	TIP4P
2251	613	3	0.5564	1.47407500	17.84269300	34.12837800	#	H	TIP4P
2252	613	3	0.5564	1.43982300	19.33155600	33.85633700	#	H	TIP4P
2253	614	2	-1.1128	23.92488800	13.56717300	24.68662000	#	O	TIP4P
2254	614	3	0.5564	23.16702000	13.92339000	25.15027600	#	H	TIP4P
2255	614	3	0.5564	24.51359200	13.27112300	25.38089200	#	H	TIP4P
2256	615	2	-1.1128	26.47770800	7.55637300	63.79965400	#	O	TIP4P
2257	615	3	0.5564	26.08587400	6.72724000	63.52536200	#	H	TIP4P
2258	615	3	0.5564	26.62459300	7.45297900	64.73984900	#	H	TIP4P
2259	616	2	-1.1128	20.82337000	19.30507200	15.71369100	#	O	TIP4P
2260	616	3	0.5564	20.48343900	19.09436200	16.58333500	#	H	TIP4P
2261	616	3	0.5564	20.21029900	19.95326200	15.36695500	#	H	TIP4P
2262	617	2	-1.1128	26.76178600	9.58906800	38.83747100	#	O	TIP4P
2263	617	3	0.5564	27.66282800	9.27268000	38.77225000	#	H	TIP4P
2264	617	3	0.5564	26.23964400	8.79918900	38.97779200	#	H	TIP4P
2265	618	2	-1.1128	28.34544100	20.93478500	21.51209400	#	O	TIP4P
2266	618	3	0.5564	28.49175600	19.99293400	21.42411300	#	H	TIP4P
2267	618	3	0.5564	28.69360200	21.30839600	20.70250800	#	H	TIP4P
2268	619	2	-1.1128	6.82811000	30.97973200	26.03649900	#	O	TIP4P
2269	619	3	0.5564	6.51970500	30.10705400	25.79246900	#	H	TIP4P
2270	619	3	0.5564	7.27668700	30.85074900	26.87218600	#	H	TIP4P
2271	620	2	-1.1128	27.93053700	4.38992700	55.04673600	#	O	TIP4P
2272	620	3	0.5564	28.59752600	4.26861200	55.72248700	#	H	TIP4P
2273	620	3	0.5564	28.33876900	4.06281400	54.24512900	#	H	TIP4P
2274	621	2	-1.1128	23.55902500	5.53363800	70.07152900	#	O	TIP4P
2275	621	3	0.5564	24.47105800	5.46462900	69.78927800	#	H	TIP4P
2276	621	3	0.5564	23.60260700	5.98024500	70.91703100	#	H	TIP4P
2277	622	2	-1.1128	25.54133900	2.31962600	50.78544200	#	O	TIP4P
2278	622	3	0.5564	26.46156600	2.06233300	50.84214200	#	H	TIP4P
2279	622	3	0.5564	25.05768100	1.49577300	50.84521200	#	H	TIP4P
2280	623	2	-1.1128	26.43120000	21.85960200	54.56193600	#	O	TIP4P
2281	623	3	0.5564	25.51820300	21.70626400	54.80515600	#	H	TIP4P
2282	623	3	0.5564	26.80818600	20.98356100	54.48028700	#	H	TIP4P
2283	624	2	-1.1128	18.78216100	32.87973100	49.43800400	#	O	TIP4P
2284	624	3	0.5564	19.60559600	33.30649900	49.67476500	#	H	TIP4P
2285	624	3	0.5564	18.11886700	33.33215000	49.95914600	#	H	TIP4P
2286	625	2	-1.1128	13.65963700	17.71688600	56.89533200	#	O	TIP4P
2287	625	3	0.5564	13.95747900	17.35717700	56.05978900	#	H	TIP4P
2288	625	3	0.5564	14.41032800	18.21068300	57.22527300	#	H	TIP4P
2289	626	2	-1.1128	25.84744100	23.92587500	33.58778200	#	O	TIP4P
2290	626	3	0.5564	25.65316300	23.17250500	34.14538500	#	H	TIP4P
2291	626	3	0.5564	26.80337000	23.97255400	33.57194100	#	H	TIP4P
2292	627	2	-1.1128	16.33381800	13.46696900	40.39294800	#	O	TIP4P
2293	627	3	0.5564	17.26945200	13.28723600	40.30066600	#	H	TIP4P
2294	627	3	0.5564	15.90399900	12.68249700	40.05222800	#	H	TIP4P
2295	628	2	-1.1128	20.41049400	7.25897700	65.71300500	#	O	TIP4P
2296	628	3	0.5564	21.12617800	7.56999500	65.15866200	#	H	TIP4P
2297	628	3	0.5564	19.61919600	7.60374600	65.29922600	#	H	TIP4P
2298	629	2	-1.1128	7.50818400	18.42700700	22.86131800	#	O	TIP4P
2299	629	3	0.5564	7.78682200	17.63161400	23.31512800	#	H	TIP4P
2300	629	3	0.5564	7.05862500	18.94102500	23.53207400	#	H	TIP4P
2301	630	2	-1.1128	1.51136700	11.72076600	29.20940900	#	O	TIP4P
2302	630	3	0.5564	1.49780600	11.10591800	28.47591800	#	H	TIP4P
2303	630	3	0.5564	1.51972400	12.58499900	28.79799300	#	H	TIP4P
2304	631	2	-1.1128	3.51685800	21.87539800	45.61699800	#	O	TIP4P
2305	631	3	0.5564	2.75104800	21.64164800	45.09247200	#	H	TIP4P
2306	631	3	0.5564	3.29271600	22.72109200	46.00532000	#	H	TIP4P
2307	632	2	-1.1128	24.97753400	32.65445200	40.79480900	#	O	TIP4P
2308	632	3	0.5564	24.49364500	33.14357000	41.46027700	#	H	TIP4P
2309	632	3	0.5564	25.49221600	33.31833600	40.33590700	#	H	TIP4P
2310	633	2	-1.1128	18.91698500	2.07845600	35.36350300	#	O	TIP4P
2311	633	3	0.5564	18.40191100	1.52631000	34.77523000	#	H	TIP4P
2312	633	3	0.5564	19.65071600	1.52500800	35.63102100	#	H	TIP4P
2313	634	2	-1.1128	13.88414700	15.51509400	69.85128500	#	O	TIP4P
2314	634	3	0.5564	14.20675500	16.40713600	69.72315300	#	H	TIP4P
2315	634	3	0.5564	14.07059200	15.32212900	70.77010700	#	H	TIP4P
2316	635	2	-1.1128	7.11976800	13.47070000	34.30149600	#	O	TIP4P
2317	635	3	0.5564	6.20617900	13.18589700	34.32330000	#	H	TIP4P
2318	635	3	0.5564	7.07247100	14.42584100	34.26026600	#	H	TIP4P
2319	636	2	-1.1128	6.67659200	12.90585400	47.43657500	#	O	TIP4P
2320	636	3	0.5564	5.93434800	13.48913700	47.27818600	#	H	TIP4P
2321	636	3	0.5564	6.41781200	12.07465300	47.03861900	#	H	TIP4P
2322	637	2	-1.1128	20.81548200	8.29433200	51.80227800	#	O	TIP4P
2323	637	3	0.5564	20.07960200	8.84417800	52.07131500	#	H	TIP4P
2324	637	3	0.5564	20.42974600	7.42993000	51.65998200	#	H	TIP4P
2325	638	2	-1.1128	9.19890100	26.19020500	28.14747100	#	O	TIP4P
2326	638	3	0.5564	9.83723900	26.73824400	28.60399000	#	H	TIP4P
2327	638	3	0.5564	9.59889000	25.32078700	28.12870100	#	H	TIP4P
2328	639	2	-1.1128	5.98638300	27.08404600	38.58670400	#	O	TIP4P
2329	639	3	0.5564	6.29916900	26.54337100	39.31200900	#	H	TIP4P
2330	639	3	0.5564	5.11115900	27.36322600	38.85553900	#	H	TIP4P
2331	640	2	-1.1128	14.00292200	10.98728100	16.17762900	#	O	TIP4P
2332	640	3	0.5564	14.26125400	11.90831900	16.21205400	#	H	TIP4P
2333	640	3	0.5564	13.20952400	10.94046500	16.71107100	#	H	TIP4P
2334	641	2	-1.1128	8.68510100	5.49852300	38.29327600	#	O	TIP4P
2335	641	3	0.5564	9.59715400	5.48781000	38.58358200	#	H	TIP4P
2336	641	3	0.5564	8.45890700	6.42745700	38.24690200	#	H	TIP4P
2337	642	2	-1.1128	2.52922100	4.40135200	39.15801300	#	O	TIP4P
2338	642	3	0.5564	1.68560700	4.06732600	39.46292900	#	H	TIP4P
2339	642	3	0.5564	3.09099200	4.37739700	39.93265500	#	H	TIP4P
2340	643	2	-1.1128	13.40547900	8.82604400	51.67753700	#	O	TIP4P
2341	643	3	0.5564	13.97458100	8.27617400	52.21605200	#	H	TIP4P
2342	643	3	0.5564	12.95072100	9.38778100	52.30513500	#	H	TIP4P
2343	644	2	-1.1128	4.54807400	23.16563000	11.49567800	#	O	TIP4P
2344	644	3	0.5564	3.73444300	22.71883500	11.72936700	#	H	TIP4P
2345	644	3	0.5564	4.54081000	23.19256400	10.53888500	#	H	TIP4P
2346	645	2	-1.1128	5.33180000	32.69862200	24.22731400	#	O	TIP4P
2347	645	3	0.5564	4.55667800	33.25712100	24.28645600	#	H	TIP4P
2348	645	3	0.5564	6.06979400	33.30380500	24.30045800	#	H	TIP4P
2349	646	2	-1.1128	23.46190100	2.12727200	65.41987800	#	O	TIP4P
2350	646	3	0.5564	24.14682100	1.49432600	65.20424900	#	H	TIP4P
2351	646	3	0.5564	23.62307700	2.35246400	66.33614300	#	H	TIP4P
2352	647	2	-1.1128	25.74113400	23.28564600	60.96826400	#	O	TIP4P
2353	647	3	0.5564	24.98856100	23.33758000	60.37905400	#	H	TIP4P
2354	647	3	0.5564	25.54249900	23.90920100	61.66680200	#	H	TIP4P
2355	648	2	-1.1128	28.70194800	31.86106800	41.01167900	#	O	TIP4P
2356	648	3	0.5564	28.98082000	32.77309100	40.92997100	#	H	TIP4P
2357	648	3	0.5564	27.79140300	31.86116600	40.71648700	#	H	TIP4P
2358	649	2	-1.1128	7.83887900	24.90472000	48.40588800	#	O	TIP4P
2359	649	3	0.5564	7.91524100	25.81924400	48.67800400	#	H	TIP4P
2360	649	3	0.5564	6.89610600	24.74361800	48.36770300	#	H	TIP4P
2361	650	2	-1.1128	4.41316600	18.32239200	29.85374700	#	O	TIP4P
2362	650	3	0.5564	4.04885300	18.41090800	28.97302500	#	H	TIP4P
2363	650	3	0.5564	5.12055400	18.96640300	29.88668600	#	H	TIP4P
2364	651	2	-1.1128	1.54232500	20.66976800	13.93680600	#	O	TIP4P
2365	651	3	0.5564	1.49940900	21.60171800	14.15095100	#	H	TIP4P
2366	651	3	0.5564	2.47798200	20.48517600	13.85494100	#	H	TIP4P
2367	652	2	-1.1128	23.69976900	5.23397500	49.83149700	#	O	TIP4P
2368	652	3	0.5564	24.52389000	4.75363200	49.91104800	#	H	TIP4P
2369	652	3	0.5564	23.69680900	5.55796300	48.93080100	#	H	TIP4P
2370	653	2	-1.1128	22.90665200	5.05360700	52.62375800	#	O	TIP4P
2371	653	3	0.5564	23.50789500	5.79071700	52.51694700	#	H	TIP4P
2372	653	3	0.5564	22.11874700	5.31563300	52.14754600	#	H	TIP4P
2373	654	2	-1.1128	11.39431500	23.28712200	44.52939800	#	O	TIP4P
2374	654	3	0.5564	11.35919900	22.72179800	43.75777100	#	H	TIP4P
2375	654	3	0.5564	12.28800100	23.18938300	44.85803800	#	H	TIP4P
2376	655	2	-1.1128	13.00142900	3.45941700	30.42969900	#	O	TIP4P
2377	655	3	0.5564	13.05392000	3.40523200	29.47547600	#	H	TIP4P
2378	655	3	0.5564	13.73715500	4.01862400	30.67915200	#	H	TIP4P
2379	656	2	-1.1128	20.65122300	22.53018400	29.16228100	#	O	TIP4P
2380	656	3	0.5564	19.92661500	22.35443400	29.76252100	#	H	TIP4P
2381	656	3	0.5564	21.02958400	21.66915600	28.98422200	#	H	TIP4P
2382	657	2	-1.1128	12.39766200	9.18591700	20.45307300	#	O	TIP4P
2383	657	3	0.5564	13.18855600	9.72510000	20.45395800	#	H	TIP4P
2384	657	3	0.5564	12.72105900	8.28545400	20.48156100	#	H	TIP4P
2385	658	2	-1.1128	8.78989500	24.95250900	58.17896800	#	O	TIP4P
2386	658	3	0.5564	7.91787900	24.67652600	57.89674000	#	H	TIP4P
2387	658	3	0.5564	9.27242300	24.13495700	58.30147200	#	H	TIP4P
2388	659	2	-1.1128	1.49284300	8.43722300	27.81275900	#	O	TIP4P
2389	659	3	0.5564	2.41891900	8.55443700	28.02459900	#	H	TIP4P
2390	659	3	0.5564	1.49503200	7.97520900	26.97444500	#	H	TIP4P
2391	660	2	-1.1128	21.41901100	4.93829900	14.87709300	#	O	TIP4P
2392	660	3	0.5564	21.54822300	3.99308200	14.95520000	#	H	TIP4P
2393	660	3	0.5564	22.30010700	5.30698400	14.94013200	#	H	TIP4P
2394	661	2	-1.1128	9.24321200	22.32261300	28.70932600	#	O	TIP4P
2395	661	3	0.5564	9.36865500	21.39052900	28.88741200	#	H	TIP4P
2396	661	3	0.5564	8.34928300	22.50418400	28.99942000	#	H	TIP4P
2397	662	2	-1.1128	31.16963000	10.30702300	63.28067400	#	O	TIP4P
2398	662	3	0.5564	31.13991000	10.60010300	64.19141700	#	H	TIP4P
2399	662	3	0.5564	31.05348900	11.10655600	62.76736200	#	H	TIP4P
2400	663	2	-1.1128	1.48722900	17.25236400	41.14366500	#	O	TIP4P
2401	663	3	0.5564	1.49806300	17.43203400	42.08378900	#	H	TIP4P
2402	663	3	0.5564	1.49276500	18.11741800	40.73393200	#	H	TIP4P
2403	664	2	-1.1128	2.07436600	9.32940400	30.97366000	#	O	TIP4P
2404	664	3	0.5564	1.48149100	9.98470700	31.34150500	#	H	TIP4P
2405	664	3	0.5564	1.49642000	8.64277600	30.64086700	#	H	TIP4P
2406	665	2	-1.1128	30.47859000	11.81309400	37.03549100	#	O	TIP4P
2407	665	3	0.5564	31.15458500	12.44599400	37.27777400	#	H	TIP4P
2408	665	3	0.5564	29.93600400	11.72949600	37.81961100	#	H	TIP4P
2409	666	2	-1.1128	9.36637600	28.56329300	38.49387100	#	O	TIP4P
2410	666	3	0.5564	8.46249600	28.66963200	38.19734900	#	H	TIP4P
2411	666	3	0.5564	9.49226300	29.26233800	39.13552500	#	H	TIP4P
2412	667	2	-1.1128	3.91771400	32.92430300	30.31239500	#	O	TIP4P
2413	667	3	0.5564	3.58893200	33.30771300	31.12549500	#	H	TIP4P
2414	667	3	0.5564	3.40859000	33.35061200	29.62298700	#	H	TIP4P
2415	668	2	-1.1128	22.70809100	18.21708100	27.55342300	#	O	TIP4P
2416	668	3	0.5564	23.64042900	18.06863300	27.39549500	#	H	TIP4P
2417	668	3	0.5564	22.65017500	19.14073000	27.79786200	#	H	TIP4P
2418	669	2	-1.1128	13.59834900	30.20001300	64.63597300	#	O	TIP4P
2419	669	3	0.5564	14.17881900	30.85680900	64.25138800	#	H	TIP4P
2420	669	3	0.5564	13.33115900	30.57720300	65.47416600	#	H	TIP4P
2421	670	2	-1.1128	3.22907000	18.25165400	15.46130300	#	O	TIP4P
2422	670	3	0.5564	4.02906400	18.53556500	15.01899600	#	H	TIP4P
2423	670	3	0.5564	3.47265300	18.19568100	16.38529800	#	H	TIP4P
2424	671	2	-1.1128	24.61851000	8.48976200	69.91033900	#	O	TIP4P
2425	671	3	0.5564	24.56025200	9.44507000	69.89534100	#	H	TIP4P
2426	671	3	0.5564	25.55102100	8.30800000	70.02702700	#	H	TIP4P
2427	672	2	-1.1128	11.41790600	30.02182500	44.91537700	#	O	TIP4P
2428	672	3	0.5564	11.16985100	29.80016700	44.01784300	#	H	TIP4P
2429	672	3	0.5564	12.21247800	30.54733200	44.82193800	#	H	TIP4P
2430	673	2	-1.1128	12.83744500	15.10821800	57.17633000	#	O	TIP4P
2431	673	3	0.5564	12.84361700	15.30429500	58.11321200	#	H	TIP4P
2432	673	3	0.5564	12.86733500	14.15256200	57.13094800	#	H	TIP4P
2433	674	2	-1.1128	7.75105200	29.56725400	30.43525800	#	O	TIP4P
2434	674	3	0.5564	8.53284600	30.04166700	30.15248200	#	H	TIP4P
2435	674	3	0.5564	7.96331400	28.64555500	30.28812600	#	H	TIP4P
2436	675	2	-1.1128	13.03783400	2.29664800	69.39668600	#	O	TIP4P
2437	675	3	0.5564	12.51909500	1.49416700	69.45295600	#	H	TIP4P
2438	675	3	0.5564	12.44003800	2.94299100	69.02103800	#	H	TIP4P
2439	676	2	-1.1128	27.29949300	12.08160700	26.95988500	#	O	TIP4P
2440	676	3	0.5564	26.37126400	11.87519500	26.85026900	#	H	TIP4P
2441	676	3	0.5564	27.69597000	11.25906400	27.24704400	#	H	TIP4P
2442	677	2	-1.1128	1.52121600	13.37128000	13.43817800	#	O	TIP4P
2443	677	3	0.5564	2.42199100	13.05530400	13.50884800	#	H	TIP4P
2444	677	3	0.5564	1.60299400	14.32447500	13.40716100	#	H	TIP4P
2445	678	2	-1.1128	24.62119700	29.72288000	59.78814100	#	O	TIP4P
2446	678	3	0.5564	23.86019800	29.48434600	59.25878900	#	H	TIP4P
2447	678	3	0.5564	24.25329500	29.99115200	60.63010900	#	H	TIP4P
2448	679	2	-1.1128	25.88988000	26.33769700	12.54372800	#	O	TIP4P
2449	679	3	0.5564	26.58195900	26.97594600	12.71663800	#	H	TIP4P
2450	679	3	0.5564	25.30234600	26.78071800	11.93154500	#	H	TIP4P
2451	680	2	-1.1128	24.86387800	17.76130100	31.95610300	#	O	TIP4P
2452	680	3	0.5564	25.70969700	18.10339800	31.66663600	#	H	TIP4P
2453	680	3	0.5564	24.38121900	18.53325500	32.25166800	#	H	TIP4P
2454	681	2	-1.1128	25.73146500	20.12988800	26.66581500	#	O	TIP4P
2455	681	3	0.5564	26.35433300	20.85669200	26.67070800	#	H	TIP4P
2456	681	3	0.5564	24.97187100	20.46157100	27.14459900	#	H	TIP4P
2457	682	2	-1.1128	10.22883300	33.36531200	43.99221300	#	O	TIP4P
2458	682	3	0.5564	10.49850400	32.45966700	43.83951200	#	H	TIP4P
2459	682	3	0.5564	9.30124200	33.30427600	44.22042600	#	H	TIP4P
2460	683	2	-1.1128	12.65277100	6.56008900	40.90370900	#	O	TIP4P
2461	683	3	0.5564	12.00034000	6.46563000	41.59771400	#	H	TIP4P
2462	683	3	0.5564	12.21820400	6.22653300	40.11877400	#	H	TIP4P
2463	684	2	-1.1128	16.61199600	13.69649400	29.01095700	#	O	TIP4P
2464	684	3	0.5564	17.21755700	13.01625100	29.30557000	#	H	TIP4P
2465	684	3	0.5564	16.87531700	13.87785000	28.10873600	#	H	TIP4P
2466	685	2	-1.1128	24.74923800	24.92842400	26.70487300	#	O	TIP4P
2467	685	3	0.5564	24.20425700	25.67080300	26.96583400	#	H	TIP4P
2468	685	3	0.5564	25.06183400	24.55827800	27.53040700	#	H	TIP4P
2469	686	2	-1.1128	26.12058500	18.61513800	59.92877800	#	O	TIP4P
2470	686	3	0.5564	25.72904600	19.21074100	59.28988300	#	H	TIP4P
2471	686	3	0.5564	25.38726100	18.08851800	60.24680200	#	H	TIP4P
2472	687	2	-1.1128	31.11815600	24.23284300	55.45982400	#	O	TIP4P
2473	687	3	0.5564	31.14986600	23.84898000	56.33610900	#	H	TIP4P
2474	687	3	0.5564	31.15480300	25.17745500	55.61014600	#	H	TIP4P
2475	688	2	-1.1128	1.66102100	27.25301300	30.04883600	#	O	TIP4P
2476	688	3	0.5564	1.48120800	26.34928800	30.30802800	#	H	TIP4P
2477	688	3	0.5564	1.49354100	27.76706800	30.83872700	#	H	TIP4P
2478	689	2	-1.1128	4.31779200	10.31390000	29.72502000	#	O	TIP4P
2479	689	3	0.5564	4.04284800	11.09138600	30.21097500	#	H	TIP4P
2480	689	3	0.5564	5.11966300	10.58234800	29.27650000	#	H	TIP4P
2481	690	2	-1.1128	4.94879500	33.30561700	40.79013500	#	O	TIP4P
2482	690	3	0.5564	5.45288400	32.49220300	40.76812900	#	H	TIP4P
2483	690	3	0.5564	4.67987800	33.39664100	41.70426300	#	H	TIP4P
2484	691	2	-1.1128	10.96590300	27.10895100	59.66200200	#	O	TIP4P
2485	691	3	0.5564	10.24070900	27.18344500	60.28230600	#	H	TIP4P
2486	691	3	0.5564	10.54331600	26.97318700	58.81393400	#	H	TIP4P
2487	692	2	-1.1128	31.13227300	5.00082800	49.55609500	#	O	TIP4P
2488	692	3	0.5564	31.15106800	4.17294900	50.03619400	#	H	TIP4P
2489	692	3	0.5564	30.95083600	4.74907200	48.65059500	#	H	TIP4P
2490	693	2	-1.1128	22.89252400	1.49815600	16.05728700	#	O	TIP4P
2491	693	3	0.5564	22.04800500	1.73080600	16.44315500	#	H	TIP4P
2492	693	3	0.5564	22.73880300	1.51935000	15.11274900	#	H	TIP4P
2493	694	2	-1.1128	17.35606100	25.44083000	33.93305600	#	O	TIP4P
2494	694	3	0.5564	17.24816500	26.26062200	33.45084200	#	H	TIP4P
2495	694	3	0.5564	16.61218200	24.90305500	33.66162900	#	H	TIP4P
2496	695	2	-1.1128	22.92146600	13.60530100	66.49284200	#	O	TIP4P
2497	695	3	0.5564	23.10709800	14.51714500	66.71714700	#	H	TIP4P
2498	695	3	0.5564	21.97739900	13.58408800	66.33625500	#	H	TIP4P
2499	696	2	-1.1128	4.57238200	9.17398700	71.69642400	#	O	TIP4P
2500	696	3	0.5564	5.47448700	9.11065400	72.01015700	#	H	TIP4P
2501	696	3	0.5564	4.27059100	10.02852900	72.00450000	#	H	TIP4P
2502	697	2	-1.1128	11.53063700	7.60461600	49.47464400	#	O	TIP4P
2503	697	3	0.5564	11.13751800	8.13455300	50.16808100	#	H	TIP4P
2504	697	3	0.5564	11.96684600	6.88920400	49.93739700	#	H	TIP4P
2505	698	2	-1.1128	25.57060200	3.95670900	63.29107900	#	O	TIP4P
2506	698	3	0.5564	24.72631600	3.98647100	63.74111000	#	H	TIP4P
2507	698	3	0.5564	26.21880900	4.02068900	63.99248100	#	H	TIP4P
2508	699	2	-1.1128	30.56416700	9.09118100	13.47770200	#	O	TIP4P
2509	699	3	0.5564	31.14993900	8.33415800	13.47317200	#	H	TIP4P
2510	699	3	0.5564	31.15000500	9.84802600	13.46319200	#	H	TIP4P
2511	700	2	-1.1128	28.06134300	23.66097900	67.63583900	#	O	TIP4P
2512	700	3	0.5564	27.88484500	22.75507700	67.38202400	#	H	TIP4P
2513	700	3	0.5564	27.69065100	24.18560300	66.92619900	#	H	TIP4P
2514	701	2	-1.1128	24.00631500	33.06074700	54.64965500	#	O	TIP4P
2515	701	3	0.5564	24.10127800	32.10848500	54.66992200	#	H	TIP4P
2516	701	3	0.5564	24.04895400	33.32578600	55.56844100	#	H	TIP4P
2517	702	2	-1.1128	7.55586000	12.77609100	58.73704900	#	O	TIP4P
2518	702	3	0.5564	8.43197300	13.16158900	58.72998800	#	H	TIP4P
2519	702	3	0.5564	6.96301100	13.52701000	58.70733600	#	H	TIP4P
2520	703	2	-1.1128	21.09957200	9.75792100	42.06033300	#	O	TIP4P
2521	703	3	0.5564	21.84338100	10.32748900	42.25673400	#	H	TIP4P
2522	703	3	0.5564	21.43570400	9.13924500	41.41188400	#	H	TIP4P
2523	704	2	-1.1128	5.41273100	20.04850600	65.47159100	#	O	TIP4P
2524	704	3	0.5564	6.27760000	20.40649200	65.27139100	#	H	TIP4P
2525	704	3	0.5564	5.58785300	19.30968300	66.05443200	#	H	TIP4P
2526	705	2	-1.1128	7.97527200	27.60202800	58.03993300	#	O	TIP4P
2527	705	3	0.5564	7.98238900	27.96847200	58.92418400	#	H	TIP4P
2528	705	3	0.5564	8.47122200	28.23078300	57.51559300	#	H	TIP4P
2529	706	2	-1.1128	7.99462400	9.78454300	13.41622900	#	O	TIP4P
2530	706	3	0.5564	7.10538600	10.13012000	13.49409500	#	H	TIP4P
2531	706	3	0.5564	7.88150200	8.83438200	13.39113200	#	H	TIP4P
2532	707	2	-1.1128	9.71678700	32.40245600	38.24646200	#	O	TIP4P
2533	707	3	0.5564	9.95855600	33.30452900	38.45633100	#	H	TIP4P
2534	707	3	0.5564	10.30124200	31.86645000	38.78250300	#	H	TIP4P
2535	708	2	-1.1128	4.85770100	17.19135700	71.25770900	#	O	TIP4P
2536	708	3	0.5564	4.01128400	17.25549900	71.70008400	#	H	TIP4P
2537	708	3	0.5564	5.15305500	16.29791500	71.43308800	#	H	TIP4P
2538	709	2	-1.1128	29.20594800	6.41626300	13.95109400	#	O	TIP4P
2539	709	3	0.5564	28.40414200	5.92564600	13.77044400	#	H	TIP4P
2540	709	3	0.5564	28.93137300	7.11423800	14.54579600	#	H	TIP4P
2541	710	2	-1.1128	18.79932300	8.94149100	20.45737900	#	O	TIP4P
2542	710	3	0.5564	18.00391800	8.76015400	19.95670000	#	H	TIP4P
2543	710	3	0.5564	18.50185300	9.47165800	21.19674700	#	H	TIP4P
2544	711	2	-1.1128	27.15532500	7.27148100	51.67348600	#	O	TIP4P
2545	711	3	0.5564	26.44675200	7.89901300	51.53080000	#	H	TIP4P
2546	711	3	0.5564	27.93990400	7.81212600	51.76498300	#	H	TIP4P
2547	712	2	-1.1128	7.34113800	11.88799200	51.98422900	#	O	TIP4P
2548	712	3	0.5564	7.35063300	11.04467000	52.43694300	#	H	TIP4P
2549	712	3	0.5564	6.79018800	12.44784500	52.53126600	#	H	TIP4P
2550	713	2	-1.1128	11.82843100	24.23995800	68.49448900	#	O	TIP4P
2551	713	3	0.5564	11.72887800	23.31279000	68.71054400	#	H	TIP4P
2552	713	3	0.5564	12.61835500	24.51179200	68.96177700	#	H	TIP4P
2553	714	2	-1.1128	11.57619500	31.99143000	70.73082000	#	O	TIP4P
2554	714	3	0.5564	11.38561300	32.89664100	70.97679500	#	H	TIP4P
2555	714	3	0.5564	11.85362000	31.57441700	71.54652000	#	H	TIP4P
2556	715	2	-1.1128	22.92863100	24.56418800	20.42280800	#	O	TIP4P
2557	715	3	0.5564	22.16849900	24.22445000	19.95057000	#	H	TIP4P
2558	715	3	0.5564	23.45604400	23.78951700	20.61762000	#	H	TIP4P
2559	716	2	-1.1128	21.21890900	1.49797900	70.94122900	#	O	TIP4P
2560	716	3	0.5564	22.03086000	1.53669200	71.44666700	#	H	TIP4P
2561	716	3	0.5564	20.53252900	1.71264700	71.57291900	#	H	TIP4P
2562	717	2	-1.1128	1.60866300	15.76085000	52.94746700	#	O	TIP4P
2563	717	3	0.5564	2.51366700	16.05556400	53.04916400	#	H	TIP4P
2564	717	3	0.5564	1.45932600	15.18201000	53.69504600	#	H	TIP4P
2565	718	2	-1.1128	19.31433700	11.45888600	19.47864600	#	O	TIP4P
2566	718	3	0.5564	19.93002400	11.03334500	18.88192500	#	H	TIP4P
2567	718	3	0.5564	18.45792800	11.33226100	19.07028000	#	H	TIP4P
2568	719	2	-1.1128	10.28173700	2.01408300	67.59333000	#	O	TIP4P
2569	719	3	0.5564	10.00150700	1.49450500	68.34681600	#	H	TIP4P
2570	719	3	0.5564	10.96844300	1.48926300	67.18195500	#	H	TIP4P
2571	720	2	-1.1128	19.51198900	1.49823100	30.50459800	#	O	TIP4P
2572	720	3	0.5564	18.99090500	1.70527500	29.72881700	#	H	TIP4P
2573	720	3	0.5564	20.41686300	1.49653100	30.19245800	#	H	TIP4P
2574	721	2	-1.1128	27.82663400	21.89789600	51.68025400	#	O	TIP4P
2575	721	3	0.5564	28.45581200	22.45198300	51.21835100	#	H	TIP4P
2576	721	3	0.5564	28.36496000	21.34025700	52.24192500	#	H	TIP4P
2577	722	2	-1.1128	23.07598100	5.87427200	42.24804900	#	O	TIP4P
2578	722	3	0.5564	22.47115600	5.15337700	42.42334700	#	H	TIP4P
2579	722	3	0.5564	22.55142900	6.51687300	41.77040900	#	H	TIP4P
2580	723	2	-1.1128	1.51223600	8.05761700	53.13799100	#	O	TIP4P
2581	723	3	0.5564	1.48046200	9.00534700	53.26849300	#	H	TIP4P
2582	723	3	0.5564	2.44317300	7.83996300	53.18505500	#	H	TIP4P
2583	724	2	-1.1128	29.38689400	1.74649400	67.26411800	#	O	TIP4P
2584	724	3	0.5564	30.19047400	1.49497400	67.71934100	#	H	TIP4P
2585	724	3	0.5564	29.53525900	1.48767800	66.35459400	#	H	TIP4P
2586	725	2	-1.1128	28.73267800	23.59248700	31.00212300	#	O	TIP4P
2587	725	3	0.5564	27.98933400	24.17099100	30.83181400	#	H	TIP4P
2588	725	3	0.5564	28.34483600	22.72125200	31.08434300	#	H	TIP4P
2589	726	2	-1.1128	7.73165800	6.23715100	62.23670900	#	O	TIP4P
2590	726	3	0.5564	7.31290800	6.77003600	61.56075400	#	H	TIP4P
2591	726	3	0.5564	8.46367600	6.77164800	62.54443300	#	H	TIP4P
2592	727	2	-1.1128	11.76989500	6.77415500	15.16766600	#	O	TIP4P
2593	727	3	0.5564	11.34296100	6.57005000	14.33562000	#	H	TIP4P
2594	727	3	0.5564	11.54815000	6.03815600	15.73807500	#	H	TIP4P
2595	728	2	-1.1128	13.39917700	19.38144700	14.70895200	#	O	TIP4P
2596	728	3	0.5564	14.14276600	18.85568600	15.00370800	#	H	TIP4P
2597	728	3	0.5564	13.72018200	19.83560900	13.92989800	#	H	TIP4P
2598	729	2	-1.1128	8.81463800	20.54856500	64.21996500	#	O	TIP4P
2599	729	3	0.5564	8.98103200	20.06351900	63.41171100	#	H	TIP4P
2600	729	3	0.5564	9.68485400	20.72453300	64.57772500	#	H	TIP4P
2601	730	2	-1.1128	25.40279100	1.76995700	59.88523000	#	O	TIP4P
2602	730	3	0.5564	26.22007700	1.46673800	59.48984000	#	H	TIP4P
2603	730	3	0.5564	24.72316700	1.50250200	59.26651300	#	H	TIP4P
2604	731	2	-1.1128	9.13745500	18.06733400	18.58627900	#	O	TIP4P
2605	731	3	0.5564	8.48735200	18.61047400	18.14063700	#	H	TIP4P
2606	731	3	0.5564	9.92948300	18.60464200	18.60120000	#	H	TIP4P
2607	732	2	-1.1128	19.04408000	4.81540900	13.19338100	#	O	TIP4P
2608	732	3	0.5564	19.04044900	4.07542700	13.80054200	#	H	TIP4P
2609	732	3	0.5564	18.46943500	4.54198300	12.47836100	#	H	TIP4P
2610	733	2	-1.1128	1.81982100	22.55984000	61.57541700	#	O	TIP4P
2611	733	3	0.5564	1.64836900	22.99261000	62.41180600	#	H	TIP4P
2612	733	3	0.5564	2.67817100	22.15144700	61.68803300	#	H	TIP4P
2613	734	2	-1.1128	13.53808800	5.11372700	13.54685300	#	O	TIP4P
2614	734	3	0.5564	13.65759800	4.83026200	14.45327200	#	H	TIP4P
2615	734	3	0.5564	13.94749300	5.97815900	13.50977500	#	H	TIP4P
2616	735	2	-1.1128	13.06088500	11.96022500	44.57942300	#	O	TIP4P
2617	735	3	0.5564	12.13925200	12.21647300	44.54534300	#	H	TIP4P
2618	735	3	0.5564	13.53377200	12.78203500	44.71071300	#	H	TIP4P
2619	736	2	-1.1128	15.78998200	8.78636500	34.28388800	#	O	TIP4P
2620	736	3	0.5564	15.35910500	9.08847500	35.08345500	#	H	TIP4P
2621	736	3	0.5564	15.62571700	7.84356800	34.26429700	#	H	TIP4P
2622	737	2	-1.1128	15.42278000	9.22315900	54.43921200	#	O	TIP4P
2623	737	3	0.5564	16.08723400	9.12543100	53.75716800	#	H	TIP4P
2624	737	3	0.5564	15.19277600	8.32588400	54.68051200	#	H	TIP4P
2625	738	2	-1.1128	26.65961700	1.84331700	54.07766100	#	O	TIP4P
2626	738	3	0.5564	25.99651200	1.48188900	53.48953300	#	H	TIP4P
2627	738	3	0.5564	27.48820100	1.49591100	53.74752800	#	H	TIP4P
2628	739	2	-1.1128	2.16000200	33.30718200	65.93375900	#	O	TIP4P
2629	739	3	0.5564	2.87333500	32.88953700	66.41641900	#	H	TIP4P
2630	739	3	0.5564	1.52542900	32.60544300	65.78845900	#	H	TIP4P
2631	740	2	-1.1128	18.39151800	28.76109100	33.40706400	#	O	TIP4P
2632	740	3	0.5564	17.50255500	29.08347300	33.25858700	#	H	TIP4P
2633	740	3	0.5564	18.91556300	29.55199100	33.53389300	#	H	TIP4P
2634	741	2	-1.1128	4.21124500	23.57746000	17.60892500	#	O	TIP4P
2635	741	3	0.5564	3.45826700	23.89417000	17.10997400	#	H	TIP4P
2636	741	3	0.5564	4.90544700	24.20971900	17.42301400	#	H	TIP4P
2637	742	2	-1.1128	1.49710200	31.02880000	37.74726600	#	O	TIP4P
2638	742	3	0.5564	1.49924400	31.97079500	37.57734600	#	H	TIP4P
2639	742	3	0.5564	1.48116700	30.95712900	38.70164600	#	H	TIP4P
2640	743	2	-1.1128	15.64316000	15.03528200	57.28246100	#	O	TIP4P
2641	743	3	0.5564	15.96914400	15.93525500	57.27850200	#	H	TIP4P
2642	743	3	0.5564	15.45039100	14.84582000	56.36421500	#	H	TIP4P
2643	744	2	-1.1128	29.10180300	29.86908800	56.67399400	#	O	TIP4P
2644	744	3	0.5564	29.75970500	30.43789600	56.27417600	#	H	TIP4P
2645	744	3	0.5564	28.35283800	30.44346900	56.83327100	#	H	TIP4P
2646	745	2	-1.1128	15.60693000	33.30810800	23.41015300	#	O	TIP4P
2647	745	3	0.5564	16.05041500	32.52751900	23.07814000	#	H	TIP4P
2648	745	3	0.5564	14.90672900	32.96772700	23.96701100	#	H	TIP4P
2649	746	2	-1.1128	1.66150200	4.16784400	64.81789800	#	O	TIP4P
2650	746	3	0.5564	1.50206300	5.06685200	65.10529500	#	H	TIP4P
2651	746	3	0.5564	1.49681300	4.18450500	63.87511900	#	H	TIP4P
2652	747	2	-1.1128	28.60582000	16.40274200	20.85443400	#	O	TIP4P
2653	747	3	0.5564	28.14601600	16.98015000	21.46387000	#	H	TIP4P
2654	747	3	0.5564	27.91805700	15.85200900	20.48039300	#	H	TIP4P
2655	748	2	-1.1128	4.87550300	16.01527800	59.22202000	#	O	TIP4P
2656	748	3	0.5564	5.79965700	16.20440300	59.05953400	#	H	TIP4P
2657	748	3	0.5564	4.71331000	15.19417400	58.75757100	#	H	TIP4P
2658	749	2	-1.1128	16.70156400	30.18924700	24.69372900	#	O	TIP4P
2659	749	3	0.5564	16.77575500	30.59091200	25.55940300	#	H	TIP4P
2660	749	3	0.5564	17.48371100	30.48154300	24.22571200	#	H	TIP4P
2661	750	2	-1.1128	19.26992900	8.54424400	67.85933100	#	O	TIP4P
2662	750	3	0.5564	19.93355600	8.17998100	68.44511600	#	H	TIP4P
2663	750	3	0.5564	18.63685700	8.96130300	68.44372200	#	H	TIP4P
2664	751	2	-1.1128	5.36937700	1.49823700	23.85605000	#	O	TIP4P
2665	751	3	0.5564	5.04881800	1.49956700	24.75797600	#	H	TIP4P
2666	751	3	0.5564	4.57664000	1.49232200	23.31961200	#	H	TIP4P
2667	752	2	-1.1128	3.98857900	33.30754900	16.52772700	#	O	TIP4P
2668	752	3	0.5564	4.38173400	32.84255800	15.78918500	#	H	TIP4P
2669	752	3	0.5564	4.52531200	33.05970200	17.28053600	#	H	TIP4P
2670	753	2	-1.1128	2.86413100	19.71237200	36.30046700	#	O	TIP4P
2671	753	3	0.5564	2.37973000	20.52372300	36.14783000	#	H	TIP4P
2672	753	3	0.5564	2.18825600	19.06097800	36.48784600	#	H	TIP4P
2673	754	2	-1.1128	8.79852100	18.45204300	13.00516500	#	O	TIP4P
2674	754	3	0.5564	9.48409700	18.79988300	12.43488000	#	H	TIP4P
2675	754	3	0.5564	8.69275600	17.54255700	12.72609400	#	H	TIP4P
2676	755	2	-1.1128	13.68776800	16.07792600	46.03218100	#	O	TIP4P
2677	755	3	0.5564	14.04378700	15.36641100	45.49999000	#	H	TIP4P
2678	755	3	0.5564	13.55909400	16.79809800	45.41490700	#	H	TIP4P
2679	756	2	-1.1128	8.01320400	32.74212100	16.15537100	#	O	TIP4P
2680	756	3	0.5564	7.07361400	32.67457300	16.32518900	#	H	TIP4P
2681	756	3	0.5564	8.34435300	33.30201400	16.85757600	#	H	TIP4P
2682	757	2	-1.1128	13.41787000	10.94682600	59.60230400	#	O	TIP4P
2683	757	3	0.5564	13.97576700	10.62841600	60.31195000	#	H	TIP4P
2684	757	3	0.5564	13.29274600	10.18572500	59.03547000	#	H	TIP4P
2685	758	2	-1.1128	22.35089600	20.72720900	12.40511700	#	O	TIP4P
2686	758	3	0.5564	22.73875600	19.90619100	12.10225300	#	H	TIP4P
2687	758	3	0.5564	21.40929000	20.60792500	12.28109300	#	H	TIP4P
2688	759	2	-1.1128	7.90232100	1.49941800	51.26979300	#	O	TIP4P
2689	759	3	0.5564	7.08914700	1.49377100	51.77471700	#	H	TIP4P
2690	759	3	0.5564	8.59498400	1.47998900	51.93015100	#	H	TIP4P
2691	760	2	-1.1128	28.87581600	5.78220100	62.93980300	#	O	TIP4P
2692	760	3	0.5564	28.68788400	5.85650600	63.87542700	#	H	TIP4P
2693	760	3	0.5564	28.62753000	4.88535300	62.71563600	#	H	TIP4P
2694	761	2	-1.1128	1.69779100	23.52966100	37.32042300	#	O	TIP4P
2695	761	3	0.5564	1.48568500	22.65211500	37.63847300	#	H	TIP4P
2696	761	3	0.5564	2.64711800	23.59866500	37.42165200	#	H	TIP4P
2697	762	2	-1.1128	5.53336000	21.20251300	51.31319400	#	O	TIP4P
2698	762	3	0.5564	4.98339800	21.05741200	52.08307600	#	H	TIP4P
2699	762	3	0.5564	4.92760500	21.51443000	50.64088500	#	H	TIP4P
2700	763	2	-1.1128	5.22624700	29.62254900	69.72678400	#	O	TIP4P
2701	763	3	0.5564	4.36521700	29.33720200	69.42111100	#	H	TIP4P
2702	763	3	0.5564	5.38553200	29.10289900	70.51470700	#	H	TIP4P
2703	764	2	-1.1128	20.57434700	2.38104100	24.63509100	#	O	TIP4P
2704	764	3	0.5564	20.14534300	3.03266800	25.18968200	#	H	TIP4P
2705	764	3	0.5564	20.04196000	1.59200200	24.73615200	#	H	TIP4P
2706	765	2	-1.1128	27.86186400	12.51081500	32.26932600	#	O	TIP4P
2707	765	3	0.5564	26.93488400	12.74577000	32.22766500	#	H	TIP4P
2708	765	3	0.5564	28.32172200	13.35017300	32.28486900	#	H	TIP4P
2709	766	2	-1.1128	29.49775600	22.15713000	64.54183600	#	O	TIP4P
2710	766	3	0.5564	29.01551700	21.90979100	63.75284800	#	H	TIP4P
2711	766	3	0.5564	29.02448800	22.91526500	64.88458900	#	H	TIP4P
2712	767	2	-1.1128	20.38523700	26.16768900	49.16395200	#	O	TIP4P
2713	767	3	0.5564	20.57761100	25.71505800	48.34276400	#	H	TIP4P
2714	767	3	0.5564	19.67941500	25.65663900	49.56002600	#	H	TIP4P
2715	768	2	-1.1128	2.55384200	10.94691300	20.22632200	#	O	TIP4P
2716	768	3	0.5564	1.62537400	11.01526900	20.00382000	#	H	TIP4P
2717	768	3	0.5564	2.83395100	11.85122400	20.36770900	#	H	TIP4P
2718	769	2	-1.1128	4.63468900	9.64807200	45.52388800	#	O	TIP4P
2719	769	3	0.5564	4.69247700	9.81674800	46.46433600	#	H	TIP4P
2720	769	3	0.5564	4.77030400	8.70419700	45.44058400	#	H	TIP4P
2721	770	2	-1.1128	20.56952500	1.51161800	21.96582600	#	O	TIP4P
2722	770	3	0.5564	21.43528100	1.90724900	22.06669900	#	H	TIP4P
2723	770	3	0.5564	20.43316200	1.47073100	21.01927200	#	H	TIP4P
2724	771	2	-1.1128	5.06262500	12.48006400	18.16876300	#	O	TIP4P
2725	771	3	0.5564	5.27242400	12.37846700	19.09714600	#	H	TIP4P
2726	771	3	0.5564	5.85611000	12.85085000	17.78258900	#	H	TIP4P
2727	772	2	-1.1128	1.49686200	31.35870400	68.23941700	#	O	TIP4P
2728	772	3	0.5564	2.26756300	30.90115200	68.57542200	#	H	TIP4P
2729	772	3	0.5564	1.49925000	32.20002400	68.69593300	#	H	TIP4P
2730	773	2	-1.1128	20.23655900	28.40362000	29.11041700	#	O	TIP4P
2731	773	3	0.5564	20.77955400	29.12445500	29.42945600	#	H	TIP4P
2732	773	3	0.5564	19.41408000	28.49128500	29.59215900	#	H	TIP4P
2733	774	2	-1.1128	21.08874700	27.39094700	31.54118500	#	O	TIP4P
2734	774	3	0.5564	20.70306800	28.13991600	31.99564000	#	H	TIP4P
2735	774	3	0.5564	21.72232100	27.03313100	32.16310400	#	H	TIP4P
2736	775	2	-1.1128	2.43730800	2.70818400	67.35187300	#	O	TIP4P
2737	775	3	0.5564	1.49754000	2.82351100	67.21127300	#	H	TIP4P
2738	775	3	0.5564	2.71101000	2.10461900	66.66120100	#	H	TIP4P
2739	776	2	-1.1128	27.20873100	21.46225800	57.40288200	#	O	TIP4P
2740	776	3	0.5564	26.51977900	20.82626800	57.21028300	#	H	TIP4P
2741	776	3	0.5564	26.79688500	22.31386800	57.25668100	#	H	TIP4P
2742	777	2	-1.1128	24.48682100	18.50464000	13.79155500	#	O	TIP4P
2743	777	3	0.5564	24.91456600	17.70657900	13.48112700	#	H	TIP4P
2744	777	3	0.5564	25.03163700	19.21570700	13.45422500	#	H	TIP4P
2745	778	2	-1.1128	4.62998200	4.46985200	68.93057300	#	O	TIP4P
2746	778	3	0.5564	5.56741500	4.38435300	69.10418700	#	H	TIP4P
2747	778	3	0.5564	4.21715600	3.84878500	69.53064100	#	H	TIP4P
2748	779	2	-1.1128	13.78167200	29.45104500	26.17451000	#	O	TIP4P
2749	779	3	0.5564	14.52031300	28.85643200	26.04383200	#	H	TIP4P
2750	779	3	0.5564	14.05501100	30.26843400	25.75810600	#	H	TIP4P
2751	780	2	-1.1128	12.10271100	17.61343300	59.40865600	#	O	TIP4P
2752	780	3	0.5564	12.51477500	18.46777400	59.28006500	#	H	TIP4P
2753	780	3	0.5564	11.18781600	17.74867700	59.16186400	#	H	TIP4P
2754	781	2	-1.1128	1.84963000	15.47618700	57.13201500	#	O	TIP4P
2755	781	3	0.5564	2.45901900	15.12702200	56.48166000	#	H	TIP4P
2756	781	3	0.5564	1.49670400	14.70184300	57.57026800	#	H	TIP4P
2757	782	2	-1.1128	27.25560300	24.06696300	40.53545700	#	O	TIP4P
2758	782	3	0.5564	27.42458000	24.17005800	41.47196600	#	H	TIP4P
2759	782	3	0.5564	27.76984900	23.30053100	40.28175300	#	H	TIP4P
2760	783	2	-1.1128	6.25300000	5.34210800	48.79888300	#	O	TIP4P
2761	783	3	0.5564	5.78323700	5.21555100	49.62322400	#	H	TIP4P
2762	783	3	0.5564	7.17771000	5.33473600	49.04604500	#	H	TIP4P
2763	784	2	-1.1128	30.51226100	2.13746400	63.66865500	#	O	TIP4P
2764	784	3	0.5564	31.15829100	2.78955700	63.39726900	#	H	TIP4P
2765	784	3	0.5564	29.72680600	2.64662600	63.86877100	#	H	TIP4P
2766	785	2	-1.1128	7.44799800	22.83979500	22.86420800	#	O	TIP4P
2767	785	3	0.5564	7.50421500	23.52950600	23.52554700	#	H	TIP4P
2768	785	3	0.5564	7.34777000	22.03199300	23.36783600	#	H	TIP4P
2769	786	2	-1.1128	30.47971000	13.67287100	70.86050000	#	O	TIP4P
2770	786	3	0.5564	31.02054600	14.26760100	71.38014000	#	H	TIP4P
2771	786	3	0.5564	31.09995500	13.04227400	70.49461000	#	H	TIP4P
2772	787	2	-1.1128	17.38790900	19.25310200	45.49397500	#	O	TIP4P
2773	787	3	0.5564	17.34626000	19.90156100	44.79112600	#	H	TIP4P
2774	787	3	0.5564	18.07652100	19.57413600	46.07619600	#	H	TIP4P
2775	788	2	-1.1128	11.52682200	8.15977300	61.86080000	#	O	TIP4P
2776	788	3	0.5564	11.55566000	9.09635200	61.66530400	#	H	TIP4P
2777	788	3	0.5564	10.88183800	8.08107600	62.56367600	#	H	TIP4P
2778	789	2	-1.1128	3.58795100	15.38482200	46.87063000	#	O	TIP4P
2779	789	3	0.5564	3.57321200	14.84469700	47.66074400	#	H	TIP4P
2780	789	3	0.5564	2.75442700	15.85518100	46.88588300	#	H	TIP4P
2781	790	2	-1.1128	24.64139600	30.80286700	26.83538700	#	O	TIP4P
2782	790	3	0.5564	25.59849400	30.80085200	26.84918900	#	H	TIP4P
2783	790	3	0.5564	24.40405900	31.72881000	26.78506000	#	H	TIP4P
2784	791	2	-1.1128	1.90378000	25.83584100	22.00635100	#	O	TIP4P
2785	791	3	0.5564	1.49631800	26.64309400	21.69242500	#	H	TIP4P
2786	791	3	0.5564	1.49207400	25.67353300	22.85510700	#	H	TIP4P
2787	792	2	-1.1128	31.14490600	29.67403400	47.01970700	#	O	TIP4P
2788	792	3	0.5564	30.96292600	30.59247400	46.82075300	#	H	TIP4P
2789	792	3	0.5564	30.29176500	29.30402300	47.24658300	#	H	TIP4P
2790	793	2	-1.1128	10.46577900	7.94517600	23.69531500	#	O	TIP4P
2791	793	3	0.5564	11.06116100	7.42629900	23.15446500	#	H	TIP4P
2792	793	3	0.5564	10.64208000	8.85188200	23.44425200	#	H	TIP4P
2793	794	2	-1.1128	12.17550400	8.50393900	71.95057800	#	O	TIP4P
2794	794	3	0.5564	12.55636300	7.62734500	72.00311400	#	H	TIP4P
2795	794	3	0.5564	12.22164400	8.73037000	71.02169100	#	H	TIP4P
2796	795	2	-1.1128	23.47528200	11.72237800	63.57418000	#	O	TIP4P
2797	795	3	0.5564	23.09559400	12.50140900	63.98060200	#	H	TIP4P
2798	795	3	0.5564	22.73909600	11.29917000	63.13241300	#	H	TIP4P
2799	796	2	-1.1128	8.04980200	2.35320800	38.73045300	#	O	TIP4P
2800	796	3	0.5564	7.84106900	1.47838500	38.40281400	#	H	TIP4P
2801	796	3	0.5564	7.67982100	2.94829200	38.07836300	#	H	TIP4P
2802	797	2	-1.1128	4.00427800	15.97277000	62.19491200	#	O	TIP4P
2803	797	3	0.5564	4.95436600	16.08278200	62.15666100	#	H	TIP4P
2804	797	3	0.5564	3.87645900	15.03266700	62.32179200	#	H	TIP4P
2805	798	2	-1.1128	24.28741700	32.36866500	63.34473800	#	O	TIP4P
2806	798	3	0.5564	24.16627100	33.30208000	63.17069100	#	H	TIP4P
2807	798	3	0.5564	25.13257800	32.15822000	62.94768900	#	H	TIP4P
2808	799	2	-1.1128	13.54960800	1.47766500	46.81836100	#	O	TIP4P
2809	799	3	0.5564	13.06945500	1.50349000	45.99070300	#	H	TIP4P
2810	799	3	0.5564	12.86868600	1.48232700	47.49108200	#	H	TIP4P
2811	800	2	-1.1128	11.71349700	5.13545600	47.73711900	#	O	TIP4P
2812	800	3	0.5564	11.16517000	4.49098200	48.18458100	#	H	TIP4P
2813	800	3	0.5564	12.06799600	4.66600900	46.98201500	#	H	TIP4P
2814	801	2	-1.1128	19.83700300	32.96682200	38.34374000	#	O	TIP4P
2815	801	3	0.5564	20.23390900	32.09663900	38.38219200	#	H	TIP4P
2816	801	3	0.5564	19.09195400	32.91744300	38.94265300	#	H	TIP4P
2817	802	2	-1.1128	21.97077500	7.57594800	54.21770000	#	O	TIP4P
2818	802	3	0.5564	22.29270300	6.84582700	54.74639400	#	H	TIP4P
2819	802	3	0.5564	21.05149600	7.66684300	54.46848800	#	H	TIP4P
2820	803	2	-1.1128	30.66222300	5.59588300	37.54377900	#	O	TIP4P
2821	803	3	0.5564	31.15734900	6.41367500	37.59171700	#	H	TIP4P
2822	803	3	0.5564	29.79170000	5.82287200	37.87073000	#	H	TIP4P
2823	804	2	-1.1128	31.14243900	7.57228700	46.48431200	#	O	TIP4P
2824	804	3	0.5564	31.16574800	6.63054800	46.65406400	#	H	TIP4P
2825	804	3	0.5564	30.53387900	7.66912100	45.75184400	#	H	TIP4P
2826	805	2	-1.1128	5.12975400	24.83050100	51.09349300	#	O	TIP4P
2827	805	3	0.5564	5.70939900	25.54123500	51.36753900	#	H	TIP4P
2828	805	3	0.5564	5.72120700	24.14294400	50.78742100	#	H	TIP4P
2829	806	2	-1.1128	11.47514700	11.88087500	29.30073300	#	O	TIP4P
2830	806	3	0.5564	11.01849400	11.16588200	29.74399900	#	H	TIP4P
2831	806	3	0.5564	12.38707400	11.59315500	29.25787200	#	H	TIP4P
2832	807	2	-1.1128	11.09494300	2.63888100	22.84331200	#	O	TIP4P
2833	807	3	0.5564	10.92496500	2.12936800	23.63561000	#	H	TIP4P
2834	807	3	0.5564	11.05643100	1.99825500	22.13313800	#	H	TIP4P
2835	808	2	-1.1128	8.31468600	12.65277700	16.56737100	#	O	TIP4P
2836	808	3	0.5564	7.75655600	12.37996700	15.83915600	#	H	TIP4P
2837	808	3	0.5564	9.15233200	12.21966300	16.40307500	#	H	TIP4P
2838	809	2	-1.1128	25.80906800	3.20086000	57.39630500	#	O	TIP4P
2839	809	3	0.5564	26.61193000	2.86055700	57.00154000	#	H	TIP4P
2840	809	3	0.5564	26.10370100	3.91418200	57.96251500	#	H	TIP4P
2841	810	2	-1.1128	30.25247400	30.56720300	32.52050800	#	O	TIP4P
2842	810	3	0.5564	31.18538400	30.66788000	32.70965000	#	H	TIP4P
2843	810	3	0.5564	29.82124400	30.69363800	33.36566300	#	H	TIP4P
2844	811	2	-1.1128	1.86505900	18.15499300	23.22154200	#	O	TIP4P
2845	811	3	0.5564	1.45962700	17.32416000	22.97340200	#	H	TIP4P
2846	811	3	0.5564	1.56614600	18.77579200	22.55709300	#	H	TIP4P
2847	812	2	-1.1128	30.30305100	10.80660700	34.48283100	#	O	TIP4P
2848	812	3	0.5564	29.73387700	11.37346500	33.96230700	#	H	TIP4P
2849	812	3	0.5564	31.16171900	10.88121500	34.06647200	#	H	TIP4P
2850	813	2	-1.1128	31.16076600	9.56762800	43.46698300	#	O	TIP4P
2851	813	3	0.5564	31.15252000	10.21874900	42.76540900	#	H	TIP4P
2852	813	3	0.5564	31.12419500	10.08275400	44.27292300	#	H	TIP4P
2853	814	2	-1.1128	18.65778100	25.91012700	19.83948500	#	O	TIP4P
2854	814	3	0.5564	18.03394300	26.12991800	20.53140300	#	H	TIP4P
2855	814	3	0.5564	19.45454500	25.65769300	20.30604200	#	H	TIP4P
2856	815	2	-1.1128	19.30442800	7.26394400	57.11739900	#	O	TIP4P
2857	815	3	0.5564	20.20455400	6.96502000	56.98836100	#	H	TIP4P
2858	815	3	0.5564	18.96815000	6.71426600	57.82521400	#	H	TIP4P
2859	816	2	-1.1128	30.61132500	8.68616400	20.02041800	#	O	TIP4P
2860	816	3	0.5564	30.10824700	9.18305000	19.37524400	#	H	TIP4P
2861	816	3	0.5564	31.15095700	8.09241700	19.49840900	#	H	TIP4P
2862	817	2	-1.1128	12.13786100	26.46702300	27.12322500	#	O	TIP4P
2863	817	3	0.5564	12.28611200	25.79324900	27.78676200	#	H	TIP4P
2864	817	3	0.5564	13.01323200	26.68611600	26.80391900	#	H	TIP4P
2865	818	2	-1.1128	2.72591100	15.37429500	67.02267200	#	O	TIP4P
2866	818	3	0.5564	2.27174600	16.15403500	66.70334200	#	H	TIP4P
2867	818	3	0.5564	2.06678000	14.90534300	67.53439700	#	H	TIP4P
2868	819	2	-1.1128	31.04793800	18.93508000	24.59266300	#	O	TIP4P
2869	819	3	0.5564	30.90810900	18.39426200	25.36996400	#	H	TIP4P
2870	819	3	0.5564	30.64360800	19.77529000	24.80898600	#	H	TIP4P
2871	820	2	-1.1128	8.45586200	25.63505100	65.29852300	#	O	TIP4P
2872	820	3	0.5564	9.13887200	25.03814500	65.60419000	#	H	TIP4P
2873	820	3	0.5564	7.71400500	25.46885400	65.88012300	#	H	TIP4P
2874	821	2	-1.1128	14.94648800	9.57204200	18.34506900	#	O	TIP4P
2875	821	3	0.5564	14.76251700	8.64189600	18.47627200	#	H	TIP4P
2876	821	3	0.5564	15.89771600	9.64221700	18.42552600	#	H	TIP4P
2877	822	2	-1.1128	16.22003100	9.28832500	66.22018600	#	O	TIP4P
2878	822	3	0.5564	15.45264500	8.95162000	65.75760600	#	H	TIP4P
2879	822	3	0.5564	16.67732800	8.50571500	66.52781100	#	H	TIP4P
2880	823	2	-1.1128	17.49225000	15.74908800	10.37329300	#	O	TIP4P
2881	823	3	0.5564	17.79717100	15.31375300	9.57721500	#	H	TIP4P
2882	823	3	0.5564	17.14602600	16.58844300	10.07023600	#	H	TIP4P
2883	824	2	-1.1128	1.59472600	15.46671600	16.77958700	#	O	TIP4P
2884	824	3	0.5564	1.49596000	16.28759100	16.29725800	#	H	TIP4P
2885	824	3	0.5564	1.49660000	14.78467900	16.11518500	#	H	TIP4P
2886	825	2	-1.1128	17.37064600	33.19681300	44.95611000	#	O	TIP4P
2887	825	3	0.5564	17.31051100	33.32447400	44.00936900	#	H	TIP4P
2888	825	3	0.5564	17.17889900	32.26801100	45.08568500	#	H	TIP4P
2889	826	2	-1.1128	1.53102200	8.66869000	34.59470500	#	O	TIP4P
2890	826	3	0.5564	1.50467400	8.20719200	33.75651800	#	H	TIP4P
2891	826	3	0.5564	1.49974700	9.59594200	34.35921400	#	H	TIP4P
2892	827	2	-1.1128	1.45354100	28.49905400	19.64793600	#	O	TIP4P
2893	827	3	0.5564	1.97673200	29.29535700	19.73960700	#	H	TIP4P
2894	827	3	0.5564	2.04946500	27.86494600	19.24917000	#	H	TIP4P
2895	828	2	-1.1128	13.06812100	1.51484200	39.23735600	#	O	TIP4P
2896	828	3	0.5564	13.78241600	2.12722000	39.41344800	#	H	TIP4P
2897	828	3	0.5564	12.56406000	1.49375900	40.05081200	#	H	TIP4P
2898	829	2	-1.1128	26.96504100	17.46252700	63.07383800	#	O	TIP4P
2899	829	3	0.5564	26.05114300	17.68897300	62.90137100	#	H	TIP4P
2900	829	3	0.5564	27.46930100	18.13959200	62.62268800	#	H	TIP4P
2901	830	2	-1.1128	21.41628400	20.70998800	47.10892500	#	O	TIP4P
2902	830	3	0.5564	20.48349400	20.51674300	47.20267800	#	H	TIP4P
2903	830	3	0.5564	21.45972800	21.66491100	47.05924800	#	H	TIP4P
2904	831	2	-1.1128	17.78518000	1.49491500	23.13738700	#	O	TIP4P
2905	831	3	0.5564	16.89753100	1.66586100	23.45217100	#	H	TIP4P
2906	831	3	0.5564	18.13109300	2.35897300	22.91382500	#	H	TIP4P
2907	832	2	-1.1128	19.43506600	12.05009500	37.73250700	#	O	TIP4P
2908	832	3	0.5564	18.74225900	11.96982400	38.38810300	#	H	TIP4P
2909	832	3	0.5564	18.97003800	12.10960900	36.89797800	#	H	TIP4P
2910	833	2	-1.1128	11.83735100	20.69882100	72.00564200	#	O	TIP4P
2911	833	3	0.5564	11.66366800	19.83031100	71.64265900	#	H	TIP4P
2912	833	3	0.5564	11.87796200	21.27439000	71.24190000	#	H	TIP4P
2913	834	2	-1.1128	15.26329400	22.33714100	27.09763600	#	O	TIP4P
2914	834	3	0.5564	15.07290300	21.50784800	26.65916700	#	H	TIP4P
2915	834	3	0.5564	16.12348300	22.20579300	27.49645200	#	H	TIP4P
2916	835	2	-1.1128	15.63022400	24.46216600	57.56083700	#	O	TIP4P
2917	835	3	0.5564	16.49727700	24.85403200	57.45646800	#	H	TIP4P
2918	835	3	0.5564	15.16293400	25.06415900	58.14004100	#	H	TIP4P
2919	836	2	-1.1128	14.34018700	26.70276300	35.60316300	#	O	TIP4P
2920	836	3	0.5564	15.24434200	26.64171300	35.29492700	#	H	TIP4P
2921	836	3	0.5564	13.87103900	27.13142600	34.88735600	#	H	TIP4P
2922	837	2	-1.1128	22.77945000	17.15984600	36.93658900	#	O	TIP4P
2923	837	3	0.5564	22.62456600	16.21630600	36.89216400	#	H	TIP4P
2924	837	3	0.5564	22.39789200	17.42656200	37.77295500	#	H	TIP4P
2925	838	2	-1.1128	1.50056900	10.20537400	15.32457500	#	O	TIP4P
2926	838	3	0.5564	2.38629700	9.98416500	15.61229800	#	H	TIP4P
2927	838	3	0.5564	1.49618500	11.16125700	15.27458400	#	H	TIP4P
2928	839	2	-1.1128	18.07484100	18.98502800	36.27169700	#	O	TIP4P
2929	839	3	0.5564	17.34239400	19.53241700	35.98864600	#	H	TIP4P
2930	839	3	0.5564	18.72208200	19.60510700	36.60757400	#	H	TIP4P
2931	840	2	-1.1128	31.20057100	6.32725000	43.44647900	#	O	TIP4P
2932	840	3	0.5564	30.34636900	5.93350700	43.62406700	#	H	TIP4P
2933	840	3	0.5564	31.04185800	6.92575700	42.71652600	#	H	TIP4P
2934	841	2	-1.1128	4.74773800	23.59978800	66.98129700	#	O	TIP4P
2935	841	3	0.5564	5.56318300	24.09507500	66.90402400	#	H	TIP4P
2936	841	3	0.5564	4.06183000	24.26731400	66.99439100	#	H	TIP4P
2937	842	2	-1.1128	12.44085700	33.29414200	64.62844300	#	O	TIP4P
2938	842	3	0.5564	13.04293900	33.33368000	63.88536500	#	H	TIP4P
2939	842	3	0.5564	13.00906700	33.30666400	65.39864500	#	H	TIP4P
2940	843	2	-1.1128	23.55536900	1.49928000	62.51890200	#	O	TIP4P
2941	843	3	0.5564	24.51004000	1.55441700	62.47652900	#	H	TIP4P
2942	843	3	0.5564	23.27443700	1.49399800	61.60387100	#	H	TIP4P
2943	844	2	-1.1128	3.20386400	2.07155400	41.42566800	#	O	TIP4P
2944	844	3	0.5564	2.51796300	1.49504400	41.08890600	#	H	TIP4P
2945	844	3	0.5564	3.93466000	1.48554500	41.62254900	#	H	TIP4P
2946	845	2	-1.1128	22.95180700	18.63501200	59.06956600	#	O	TIP4P
2947	845	3	0.5564	23.37110900	18.13963300	58.36599200	#	H	TIP4P
2948	845	3	0.5564	22.68464600	17.97056400	59.70467700	#	H	TIP4P
2949	846	2	-1.1128	27.22698500	20.59775200	29.26534500	#	O	TIP4P
2950	846	3	0.5564	27.24095100	19.64131300	29.30086600	#	H	TIP4P
2951	846	3	0.5564	28.13417400	20.84449600	29.08546300	#	H	TIP4P
2952	847	2	-1.1128	3.89003000	12.95420200	53.92220300	#	O	TIP4P
2953	847	3	0.5564	4.15226300	13.05872300	53.00757700	#	H	TIP4P
2954	847	3	0.5564	3.79839000	13.84908100	54.24935100	#	H	TIP4P
2955	848	2	-1.1128	7.22695900	25.98639400	16.29568200	#	O	TIP4P
2956	848	3	0.5564	7.41640300	25.09885300	16.60000700	#	H	TIP4P
2957	848	3	0.5564	6.49236000	25.88111700	15.69110500	#	H	TIP4P
2958	849	2	-1.1128	23.71768700	20.49062600	37.27810200	#	O	TIP4P
2959	849	3	0.5564	24.02819900	19.58519000	37.27830700	#	H	TIP4P
2960	849	3	0.5564	24.13064300	20.88578000	36.51028000	#	H	TIP4P
2961	850	2	-1.1128	2.01149400	23.60526300	51.77255400	#	O	TIP4P
2962	850	3	0.5564	1.49382700	23.04497900	51.19433700	#	H	TIP4P
2963	850	3	0.5564	2.89859500	23.24951400	51.72034700	#	H	TIP4P
2964	851	2	-1.1128	19.12630100	15.32225700	46.67490000	#	O	TIP4P
2965	851	3	0.5564	18.70657700	15.13554400	47.51466300	#	H	TIP4P
2966	851	3	0.5564	18.95253600	14.54634500	46.14198600	#	H	TIP4P
2967	852	2	-1.1128	21.01807200	15.79127600	48.85685400	#	O	TIP4P
2968	852	3	0.5564	21.35353500	15.11093300	48.27304900	#	H	TIP4P
2969	852	3	0.5564	20.55460600	15.31139500	49.54325400	#	H	TIP4P
2970	853	2	-1.1128	6.48859700	20.40769300	34.32417300	#	O	TIP4P
2971	853	3	0.5564	6.71529700	19.52147300	34.04230000	#	H	TIP4P
2972	853	3	0.5564	6.54644200	20.93509800	33.52747500	#	H	TIP4P
2973	854	2	-1.1128	20.60127100	13.39055300	24.31568100	#	O	TIP4P
2974	854	3	0.5564	19.87586900	13.14847500	24.89137400	#	H	TIP4P
2975	854	3	0.5564	20.78564500	12.59594500	23.81484600	#	H	TIP4P
2976	855	2	-1.1128	28.91826600	26.20807800	57.11478900	#	O	TIP4P
2977	855	3	0.5564	29.03609300	26.77819100	57.87460400	#	H	TIP4P
2978	855	3	0.5564	29.10977400	25.32923300	57.44218400	#	H	TIP4P
2979	856	2	-1.1128	22.03442500	31.32398300	15.05280200	#	O	TIP4P
2980	856	3	0.5564	21.13234800	31.58298100	14.86463000	#	H	TIP4P
2981	856	3	0.5564	22.56172500	32.07424600	14.77840900	#	H	TIP4P
2982	857	2	-1.1128	9.65788600	17.00281500	69.36825900	#	O	TIP4P
2983	857	3	0.5564	9.13421200	16.20652000	69.27931400	#	H	TIP4P
2984	857	3	0.5564	9.05816300	17.71167300	69.13570100	#	H	TIP4P
2985	858	2	-1.1128	9.06261400	7.72964100	20.65480100	#	O	TIP4P
2986	858	3	0.5564	8.87497000	7.30285200	21.49078700	#	H	TIP4P
2987	858	3	0.5564	10.01485200	7.82626900	20.64308500	#	H	TIP4P
2988	859	2	-1.1128	22.40441200	17.09061500	51.37308100	#	O	TIP4P
2989	859	3	0.5564	22.48439800	17.53840400	52.21529200	#	H	TIP4P
2990	859	3	0.5564	21.58201700	17.41490000	51.00601600	#	H	TIP4P
2991	860	2	-1.1128	22.59867600	15.10622500	22.73008400	#	O	TIP4P
2992	860	3	0.5564	23.09892100	15.80708500	23.14815200	#	H	TIP4P
2993	860	3	0.5564	23.14463800	14.82725200	21.99501200	#	H	TIP4P
2994	861	2	-1.1128	7.36284600	9.78309100	34.85021100	#	O	TIP4P
2995	861	3	0.5564	7.38004800	10.73031700	34.71346700	#	H	TIP4P
2996	861	3	0.5564	6.82239100	9.44716600	34.13516200	#	H	TIP4P
2997	862	2	-1.1128	15.31895300	13.01548200	13.91830200	#	O	TIP4P
2998	862	3	0.5564	15.82255000	12.21005600	13.80035700	#	H	TIP4P
2999	862	3	0.5564	14.44188000	12.79858900	13.60218300	#	H	TIP4P
3000	863	2	-1.1128	23.26596500	33.29834300	32.76027400	#	O	TIP4P
3001	863	3	0.5564	22.41572100	33.30919500	33.19981900	#	H	TIP4P
3002	863	3	0.5564	23.58979400	32.40641300	32.88607900	#	H	TIP4P
3003	864	2	-1.1128	25.38641100	10.15125000	12.96567200	#	O	TIP4P
3004	864	3	0.5564	24.83197100	10.93070000	12.92980400	#	H	TIP4P
3005	864	3	0.5564	24.77023500	9.41888500	12.97979800	#	H	TIP4P
3006	865	2	-1.1128	31.15435500	18.18147700	41.62470200	#	O	TIP4P
3007	865	3	0.5564	31.15359700	17.72393900	40.78393500	#	H	TIP4P
3008	865	3	0.5564	31.15276300	19.11010300	41.39257500	#	H	TIP4P
3009	866	2	-1.1128	4.72807800	10.27940000	35.71065000	#	O	TIP4P
3010	866	3	0.5564	3.80417400	10.12073500	35.90418800	#	H	TIP4P
3011	866	3	0.5564	4.80122900	11.23211700	35.65398100	#	H	TIP4P
3012	867	2	-1.1128	4.61828600	10.31721100	54.52593600	#	O	TIP4P
3013	867	3	0.5564	4.73120000	9.37960700	54.36979000	#	H	TIP4P
3014	867	3	0.5564	5.49821100	10.68313500	54.43614100	#	H	TIP4P
3015	868	2	-1.1128	16.65723200	1.50012100	14.63838100	#	O	TIP4P
3016	868	3	0.5564	15.91438700	2.03267600	14.35413300	#	H	TIP4P
3017	868	3	0.5564	17.36301200	2.13037700	14.78289200	#	H	TIP4P
3018	869	2	-1.1128	26.88352800	20.56799400	31.99355700	#	O	TIP4P
3019	869	3	0.5564	27.71256300	20.09304200	32.05146200	#	H	TIP4P
3020	869	3	0.5564	26.87171400	21.12585500	32.77129900	#	H	TIP4P
3021	870	2	-1.1128	11.52496500	11.92836900	12.03452900	#	O	TIP4P
3022	870	3	0.5564	12.22969500	12.57424200	11.98518600	#	H	TIP4P
3023	870	3	0.5564	11.03550800	12.04454900	11.22017900	#	H	TIP4P
3024	871	2	-1.1128	2.74382500	29.28156200	14.20503200	#	O	TIP4P
3025	871	3	0.5564	2.75703100	30.23136800	14.08702400	#	H	TIP4P
3026	871	3	0.5564	3.45920600	28.96148200	13.65547700	#	H	TIP4P
3027	872	2	-1.1128	7.95633300	27.76309100	50.69404300	#	O	TIP4P
3028	872	3	0.5564	7.13732200	27.88287200	51.17477700	#	H	TIP4P
3029	872	3	0.5564	8.25670900	28.65235100	50.50637000	#	H	TIP4P
3030	873	2	-1.1128	11.13284500	12.03278900	72.01210400	#	O	TIP4P
3031	873	3	0.5564	11.77522600	12.74238200	72.00466400	#	H	TIP4P
3032	873	3	0.5564	11.65872300	11.23298700	72.01154000	#	H	TIP4P
3033	874	2	-1.1128	12.60398000	27.75392500	68.50440500	#	O	TIP4P
3034	874	3	0.5564	11.96568600	27.08685700	68.25175300	#	H	TIP4P
3035	874	3	0.5564	12.07394200	28.51059900	68.75487800	#	H	TIP4P
3036	875	2	-1.1128	15.70911600	33.30307300	47.72834000	#	O	TIP4P
3037	875	3	0.5564	15.36085800	33.35574500	46.83829800	#	H	TIP4P
3038	875	3	0.5564	16.65564300	33.22177000	47.61126400	#	H	TIP4P
3039	876	2	-1.1128	8.94959600	2.38623000	12.71986700	#	O	TIP4P
3040	876	3	0.5564	8.58841800	1.49978900	12.71775800	#	H	TIP4P
3041	876	3	0.5564	8.18447400	2.95728400	12.65117900	#	H	TIP4P
3042	877	2	-1.1128	18.82268400	22.30998600	15.65360600	#	O	TIP4P
3043	877	3	0.5564	18.49844900	22.15163600	14.76702300	#	H	TIP4P
3044	877	3	0.5564	18.06190300	22.16663900	16.21653900	#	H	TIP4P
3045	878	2	-1.1128	27.97346200	26.41714000	33.10557500	#	O	TIP4P
3046	878	3	0.5564	27.66186400	26.52793800	32.20732000	#	H	TIP4P
3047	878	3	0.5564	28.62930100	27.10512000	33.21866600	#	H	TIP4P
3048	879	2	-1.1128	13.74394500	6.73848200	31.08391800	#	O	TIP4P
3049	879	3	0.5564	13.53566900	6.43853500	31.96872600	#	H	TIP4P
3050	879	3	0.5564	12.92401400	6.64375600	30.59917900	#	H	TIP4P
3051	880	2	-1.1128	1.77530600	27.76095600	70.33278200	#	O	TIP4P
3052	880	3	0.5564	2.43212400	28.09650800	70.94288700	#	H	TIP4P
3053	880	3	0.5564	1.70438800	28.43824000	69.66011000	#	H	TIP4P
3054	881	2	-1.1128	26.86272900	21.51741700	16.61311600	#	O	TIP4P
3055	881	3	0.5564	27.17143600	21.76266700	17.48534500	#	H	TIP4P
3056	881	3	0.5564	26.85857000	22.33809400	16.12046700	#	H	TIP4P
3057	882	2	-1.1128	19.15723900	27.24051100	58.00948800	#	O	TIP4P
3058	882	3	0.5564	18.33604100	26.77266300	58.16108900	#	H	TIP4P
3059	882	3	0.5564	18.91231400	28.16574900	58.02283900	#	H	TIP4P
3060	883	2	-1.1128	7.47087100	33.30074400	35.10845300	#	O	TIP4P
3061	883	3	0.5564	6.97999800	32.82187800	35.77625800	#	H	TIP4P
3062	883	3	0.5564	8.36908200	33.32027000	35.43870400	#	H	TIP4P
3063	884	2	-1.1128	26.83626700	32.77080500	31.03987000	#	O	TIP4P
3064	884	3	0.5564	26.79781800	31.93336800	31.50187900	#	H	TIP4P
3065	884	3	0.5564	26.16677200	33.30890700	31.46230900	#	H	TIP4P
3066	885	2	-1.1128	30.45380500	14.89632400	34.63685200	#	O	TIP4P
3067	885	3	0.5564	31.17117200	14.62219300	35.20822600	#	H	TIP4P
3068	885	3	0.5564	30.10787200	14.07947900	34.27723300	#	H	TIP4P
3069	886	2	-1.1128	31.06654400	21.94829000	39.48624800	#	O	TIP4P
3070	886	3	0.5564	31.20143200	21.00457100	39.40004100	#	H	TIP4P
3071	886	3	0.5564	30.12270800	22.04524400	39.61275900	#	H	TIP4P
3072	887	2	-1.1128	11.65495200	29.11917400	50.79180900	#	O	TIP4P
3073	887	3	0.5564	12.35555600	29.59620100	50.34702600	#	H	TIP4P
3074	887	3	0.5564	12.06944600	28.31129400	51.09472200	#	H	TIP4P
3075	888	2	-1.1128	23.63423700	12.77858600	60.28475300	#	O	TIP4P
3076	888	3	0.5564	24.10011400	11.95068200	60.40207400	#	H	TIP4P
3077	888	3	0.5564	23.46663000	13.08788600	61.17496200	#	H	TIP4P
3078	889	2	-1.1128	18.42899800	31.41493100	27.92650400	#	O	TIP4P
3079	889	3	0.5564	18.26318300	32.25625200	28.35184600	#	H	TIP4P
3080	889	3	0.5564	19.26759300	31.12545100	28.28593700	#	H	TIP4P
3081	890	2	-1.1128	30.28909700	32.94038100	57.28235200	#	O	TIP4P
3082	890	3	0.5564	29.69408200	33.30906600	56.62946700	#	H	TIP4P
3083	890	3	0.5564	31.14616300	33.30254600	57.05761600	#	H	TIP4P
3084	891	2	-1.1128	14.65947600	12.18912300	19.78167500	#	O	TIP4P
3085	891	3	0.5564	14.05352300	12.12837200	19.04318900	#	H	TIP4P
3086	891	3	0.5564	15.52811700	12.19393400	19.37959300	#	H	TIP4P
3087	892	2	-1.1128	16.84497400	30.58279200	59.77640900	#	O	TIP4P
3088	892	3	0.5564	16.41675100	29.93719700	60.33860400	#	H	TIP4P
3089	892	3	0.5564	17.21426500	31.22318300	60.38448400	#	H	TIP4P
3090	893	2	-1.1128	30.33291500	21.51707100	67.08242400	#	O	TIP4P
3091	893	3	0.5564	31.15279600	21.18958700	67.45226600	#	H	TIP4P
3092	893	3	0.5564	29.83500800	20.72850200	66.86683400	#	H	TIP4P
3093	894	2	-1.1128	31.12632300	14.94403100	68.50929800	#	O	TIP4P
3094	894	3	0.5564	31.15261000	15.27486700	67.61147400	#	H	TIP4P
3095	894	3	0.5564	31.16981400	15.72881200	69.05561100	#	H	TIP4P
3096	895	2	-1.1128	15.49376800	29.06999800	40.79463900	#	O	TIP4P
3097	895	3	0.5564	14.91024600	28.31281600	40.74555300	#	H	TIP4P
3098	895	3	0.5564	14.90557700	29.82417200	40.83317400	#	H	TIP4P
3099	896	2	-1.1128	26.64141900	17.23523100	57.43573200	#	O	TIP4P
3100	896	3	0.5564	26.52294800	17.55126800	56.54001100	#	H	TIP4P
3101	896	3	0.5564	25.76685200	16.96007500	57.71078200	#	H	TIP4P
3102	897	2	-1.1128	21.05154900	14.06432700	33.82946700	#	O	TIP4P
3103	897	3	0.5564	20.26234400	13.67131900	34.20220300	#	H	TIP4P
3104	897	3	0.5564	21.54947900	13.32271400	33.48550700	#	H	TIP4P
3105	898	2	-1.1128	23.85819800	32.52187500	29.84360900	#	O	TIP4P
3106	898	3	0.5564	24.65616900	32.12492500	29.49445900	#	H	TIP4P
3107	898	3	0.5564	23.16019400	32.19835200	29.27408800	#	H	TIP4P
3108	899	2	-1.1128	12.81556100	2.10358400	55.63749200	#	O	TIP4P
3109	899	3	0.5564	12.33960700	2.93295700	55.59459400	#	H	TIP4P
3110	899	3	0.5564	12.29810400	1.56040400	56.23198800	#	H	TIP4P
3111	900	2	-1.1128	23.15667700	30.17339500	31.34077600	#	O	TIP4P
3112	900	3	0.5564	22.23974400	30.44806100	31.34568400	#	H	TIP4P
3113	900	3	0.5564	23.12131700	29.22049700	31.25730800	#	H	TIP4P
3114	901	2	-1.1128	5.71828900	4.24847300	18.79366900	#	O	TIP4P
3115	901	3	0.5564	4.86231900	4.53127200	18.47184400	#	H	TIP4P
3116	901	3	0.5564	6.26304500	4.19168800	18.00865400	#	H	TIP4P
3117	902	2	-1.1128	22.20553400	23.30235600	55.96603900	#	O	TIP4P
3118	902	3	0.5564	23.14879300	23.32864100	55.80540600	#	H	TIP4P
3119	902	3	0.5564	22.04647900	22.42688300	56.31885700	#	H	TIP4P
3120	903	2	-1.1128	13.62202200	28.16641900	11.93532600	#	O	TIP4P
3121	903	3	0.5564	13.55089900	29.09894300	11.73143200	#	H	TIP4P
3122	903	3	0.5564	14.31070500	28.11756900	12.59832000	#	H	TIP4P
3123	904	2	-1.1128	27.19643200	27.40113000	22.13588900	#	O	TIP4P
3124	904	3	0.5564	26.44434700	26.83549900	21.96078600	#	H	TIP4P
3125	904	3	0.5564	27.71905900	27.36027900	21.33499900	#	H	TIP4P
3126	905	2	-1.1128	16.56522000	19.69061600	39.57243900	#	O	TIP4P
3127	905	3	0.5564	16.54309600	19.63421800	38.61715800	#	H	TIP4P
3128	905	3	0.5564	16.85102400	20.58604300	39.75342500	#	H	TIP4P
3129	906	2	-1.1128	20.10060000	13.90239500	68.32070000	#	O	TIP4P
3130	906	3	0.5564	19.70636700	14.56994000	67.75927700	#	H	TIP4P
3131	906	3	0.5564	20.84048900	14.34496700	68.73654300	#	H	TIP4P
3132	907	2	-1.1128	16.15184200	7.03123700	21.08234200	#	O	TIP4P
3133	907	3	0.5564	16.39738200	7.42845800	21.91790000	#	H	TIP4P
3134	907	3	0.5564	15.29837300	7.41279600	20.87682900	#	H	TIP4P
3135	908	2	-1.1128	9.65844800	3.85014500	35.47547600	#	O	TIP4P
3136	908	3	0.5564	9.54663000	4.74759400	35.78902700	#	H	TIP4P
3137	908	3	0.5564	10.54085100	3.83359300	35.10490600	#	H	TIP4P
3138	909	2	-1.1128	24.32572100	5.01742700	55.03552600	#	O	TIP4P
3139	909	3	0.5564	24.05609800	4.10170100	54.96495100	#	H	TIP4P
3140	909	3	0.5564	25.21636100	4.97917800	55.38413800	#	H	TIP4P
3141	910	2	-1.1128	20.45970200	2.38948400	56.09057900	#	O	TIP4P
3142	910	3	0.5564	20.70729200	1.49665000	55.85020600	#	H	TIP4P
3143	910	3	0.5564	19.55600600	2.31370400	56.39688400	#	H	TIP4P
3144	911	2	-1.1128	15.88140400	24.48929000	63.54878400	#	O	TIP4P
3145	911	3	0.5564	15.75532100	25.39753600	63.82341800	#	H	TIP4P
3146	911	3	0.5564	15.76560500	23.97810500	64.34972800	#	H	TIP4P
3147	912	2	-1.1128	21.74025500	25.20856900	69.85344100	#	O	TIP4P
3148	912	3	0.5564	21.87634100	25.68330800	69.03348000	#	H	TIP4P
3149	912	3	0.5564	20.78934300	25.13120700	69.93098500	#	H	TIP4P
3150	913	2	-1.1128	22.00971900	9.58664600	30.95094500	#	O	TIP4P
3151	913	3	0.5564	21.18759000	9.09653700	30.93957900	#	H	TIP4P
3152	913	3	0.5564	21.74127200	10.50499400	30.97930000	#	H	TIP4P
3153	914	2	-1.1128	4.29564800	7.13674300	56.63351800	#	O	TIP4P
3154	914	3	0.5564	4.78421400	7.95519100	56.72114400	#	H	TIP4P
3155	914	3	0.5564	4.93443600	6.45311600	56.83559400	#	H	TIP4P
3156	915	2	-1.1128	9.41911400	14.71140900	52.51201700	#	O	TIP4P
3157	915	3	0.5564	9.17059400	13.80837400	52.70949200	#	H	TIP4P
3158	915	3	0.5564	10.22540800	14.85240900	53.00824300	#	H	TIP4P
3159	916	2	-1.1128	12.51037800	28.23195200	37.28220200	#	O	TIP4P
3160	916	3	0.5564	13.32974700	28.71616500	37.18020400	#	H	TIP4P
3161	916	3	0.5564	11.83665700	28.90953300	37.33890100	#	H	TIP4P
3162	917	2	-1.1128	9.44723100	18.17760700	61.33964200	#	O	TIP4P
3163	917	3	0.5564	9.31967500	17.53895600	62.04113000	#	H	TIP4P
3164	917	3	0.5564	8.82841800	17.91319000	60.65891800	#	H	TIP4P
3165	918	2	-1.1128	27.51057700	30.51879200	24.77153800	#	O	TIP4P
3166	918	3	0.5564	27.73271900	29.83850600	25.40722300	#	H	TIP4P
3167	918	3	0.5564	26.69732600	30.21450000	24.36872200	#	H	TIP4P
3168	919	2	-1.1128	12.29528900	9.82525900	35.35851600	#	O	TIP4P
3169	919	3	0.5564	12.77461000	9.84809700	34.53028800	#	H	TIP4P
3170	919	3	0.5564	11.37309600	9.84371500	35.10268100	#	H	TIP4P
3171	920	2	-1.1128	24.52667600	28.28909300	51.21870900	#	O	TIP4P
3172	920	3	0.5564	25.36063600	28.02858400	51.60970400	#	H	TIP4P
3173	920	3	0.5564	24.16610800	27.47820600	50.85998200	#	H	TIP4P
3174	921	2	-1.1128	3.99324300	11.48455600	23.84962000	#	O	TIP4P
3175	921	3	0.5564	4.04966200	10.52947000	23.82030800	#	H	TIP4P
3176	921	3	0.5564	4.90334600	11.77740200	23.89635400	#	H	TIP4P
3177	922	2	-1.1128	21.50673300	25.30741100	27.35791700	#	O	TIP4P
3178	922	3	0.5564	21.78562000	24.81135100	28.12757900	#	H	TIP4P
3179	922	3	0.5564	20.95800800	24.69730600	26.86506300	#	H	TIP4P
3180	923	2	-1.1128	21.89287800	2.37403700	50.88197800	#	O	TIP4P
3181	923	3	0.5564	22.17728300	1.49305200	50.63864500	#	H	TIP4P
3182	923	3	0.5564	22.69514800	2.89607700	50.87365700	#	H	TIP4P
3183	924	2	-1.1128	7.69215200	32.72117700	13.42430200	#	O	TIP4P
3184	924	3	0.5564	8.45013500	33.30099400	13.49850900	#	H	TIP4P
3185	924	3	0.5564	6.93637600	33.30084800	13.51925500	#	H	TIP4P
3186	925	2	-1.1128	23.50429200	1.50276100	31.84153400	#	O	TIP4P
3187	925	3	0.5564	22.62257300	1.49929100	32.21408200	#	H	TIP4P
3188	925	3	0.5564	23.91440900	2.28854900	32.20288200	#	H	TIP4P
3189	926	2	-1.1128	21.03093900	5.05756400	27.17056400	#	O	TIP4P
3190	926	3	0.5564	21.89080300	5.47788600	27.15657600	#	H	TIP4P
3191	926	3	0.5564	21.19340000	4.19110000	27.54349600	#	H	TIP4P
3192	927	2	-1.1128	4.01060900	26.06254600	28.73056100	#	O	TIP4P
3193	927	3	0.5564	4.05218200	27.01866500	28.71213000	#	H	TIP4P
3194	927	3	0.5564	3.21914300	25.84719100	28.23716900	#	H	TIP4P
3195	928	2	-1.1128	5.44372600	17.83116000	36.81587100	#	O	TIP4P
3196	928	3	0.5564	5.41061200	18.63282800	36.29389100	#	H	TIP4P
3197	928	3	0.5564	4.57463200	17.76648000	37.21175400	#	H	TIP4P
3198	929	2	-1.1128	17.05454800	22.66062600	24.25175200	#	O	TIP4P
3199	929	3	0.5564	16.60889400	23.40188900	24.66181800	#	H	TIP4P
3200	929	3	0.5564	17.17162200	22.02869700	24.96111200	#	H	TIP4P
3201	930	2	-1.1128	29.65586800	23.98850600	69.85218900	#	O	TIP4P
3202	930	3	0.5564	29.63731300	23.03438400	69.92661300	#	H	TIP4P
3203	930	3	0.5564	28.82309200	24.27473100	70.22740900	#	H	TIP4P
3204	931	2	-1.1128	21.46636200	2.18091200	58.74526600	#	O	TIP4P
3205	931	3	0.5564	21.97481400	1.49673500	59.18071000	#	H	TIP4P
3206	931	3	0.5564	20.55454900	1.95941000	58.93438700	#	H	TIP4P
3207	932	2	-1.1128	15.49520100	13.25928600	11.10404800	#	O	TIP4P
3208	932	3	0.5564	16.32755500	12.78994000	11.16001500	#	H	TIP4P
3209	932	3	0.5564	15.56464100	13.77615900	10.30139500	#	H	TIP4P
3210	933	2	-1.1128	29.43863700	18.63503900	57.58482300	#	O	TIP4P
3211	933	3	0.5564	30.12809300	19.28734600	57.70882700	#	H	TIP4P
3212	933	3	0.5564	28.62314800	19.12327300	57.69811800	#	H	TIP4P
3213	934	2	-1.1128	14.09917100	6.84981200	66.89806900	#	O	TIP4P
3214	934	3	0.5564	14.86809500	6.64209600	67.42895800	#	H	TIP4P
3215	934	3	0.5564	13.65748200	6.00939100	66.77627300	#	H	TIP4P
3216	935	2	-1.1128	27.13241800	24.04331500	19.54938900	#	O	TIP4P
3217	935	3	0.5564	26.31872100	24.09438900	19.04787100	#	H	TIP4P
3218	935	3	0.5564	27.21617300	24.90427700	19.95921900	#	H	TIP4P
3219	936	2	-1.1128	18.52653600	23.07322800	20.16623500	#	O	TIP4P
3220	936	3	0.5564	17.88310900	23.29273200	20.84006900	#	H	TIP4P
3221	936	3	0.5564	18.08435100	23.26748400	19.33981600	#	H	TIP4P
3222	937	2	-1.1128	8.15867100	20.48258500	21.15477300	#	O	TIP4P
3223	937	3	0.5564	8.59899300	19.75539700	20.71483400	#	H	TIP4P
3224	937	3	0.5564	8.77641800	21.21099300	21.09120400	#	H	TIP4P
3225	938	2	-1.1128	27.02768800	20.82012500	23.92205200	#	O	TIP4P
3226	938	3	0.5564	26.52846900	20.13390500	23.47920400	#	H	TIP4P
3227	938	3	0.5564	27.82645300	20.38315100	24.21745000	#	H	TIP4P
3228	939	2	-1.1128	18.14549600	19.78439200	13.20356500	#	O	TIP4P
3229	939	3	0.5564	18.69989700	20.36704800	12.68454400	#	H	TIP4P
3230	939	3	0.5564	18.45844900	18.90467600	12.99286900	#	H	TIP4P
3231	940	2	-1.1128	18.62896600	23.33824700	27.47679300	#	O	TIP4P
3232	940	3	0.5564	18.33507900	23.88351600	26.74703700	#	H	TIP4P
3233	940	3	0.5564	18.86857200	22.50453500	27.07213900	#	H	TIP4P
3234	941	2	-1.1128	30.56771700	27.56921000	68.65814600	#	O	TIP4P
3235	941	3	0.5564	29.75510500	27.12172900	68.89405600	#	H	TIP4P
3236	941	3	0.5564	30.78435500	28.09505500	69.42807200	#	H	TIP4P
3237	942	2	-1.1128	12.46157500	23.94118000	71.95394600	#	O	TIP4P
3238	942	3	0.5564	13.31037700	23.50164000	72.00465500	#	H	TIP4P
3239	942	3	0.5564	12.67083400	24.83765500	71.69169400	#	H	TIP4P
3240	943	2	-1.1128	19.63599700	22.95408100	55.05091300	#	O	TIP4P
3241	943	3	0.5564	19.94931600	22.27532400	54.45312400	#	H	TIP4P
3242	943	3	0.5564	19.34253700	22.47469000	55.82570100	#	H	TIP4P
3243	944	2	-1.1128	13.25648300	5.01464500	19.01535000	#	O	TIP4P
3244	944	3	0.5564	12.61658200	5.02936800	18.30363300	#	H	TIP4P
3245	944	3	0.5564	13.40379600	5.93697000	19.22474400	#	H	TIP4P
3246	945	2	-1.1128	2.03533700	12.44867800	56.03150500	#	O	TIP4P
3247	945	3	0.5564	1.49483100	12.68846200	55.27878400	#	H	TIP4P
3248	945	3	0.5564	1.49185400	11.84131100	56.53346300	#	H	TIP4P
3249	946	2	-1.1128	26.63087300	5.90953300	71.43197800	#	O	TIP4P
3250	946	3	0.5564	26.11318500	6.47854900	72.00158400	#	H	TIP4P
3251	946	3	0.5564	27.35213500	6.46258400	71.13173200	#	H	TIP4P
3252	947	2	-1.1128	23.61397900	18.29775700	64.89790400	#	O	TIP4P
3253	947	3	0.5564	22.93994600	18.97608800	64.94007700	#	H	TIP4P
3254	947	3	0.5564	24.43806300	18.78146100	64.84179100	#	H	TIP4P
3255	948	2	-1.1128	20.23913700	17.42270200	10.30991400	#	O	TIP4P
3256	948	3	0.5564	19.62154600	17.35652300	11.03822300	#	H	TIP4P
3257	948	3	0.5564	20.79706700	18.16712400	10.53526100	#	H	TIP4P
3258	949	2	-1.1128	15.65804000	2.05613800	30.79008800	#	O	TIP4P
3259	949	3	0.5564	16.35706800	1.46938700	30.50144400	#	H	TIP4P
3260	949	3	0.5564	14.88264600	1.49746800	30.84376700	#	H	TIP4P
3261	950	2	-1.1128	16.15084000	2.36415500	51.24779000	#	O	TIP4P
3262	950	3	0.5564	16.41545500	1.48209200	50.98668400	#	H	TIP4P
3263	950	3	0.5564	16.79988000	2.93925800	50.84253100	#	H	TIP4P
3264	951	2	-1.1128	6.91858300	5.42253600	26.65863400	#	O	TIP4P
3265	951	3	0.5564	6.47716200	4.57857400	26.56319900	#	H	TIP4P
3266	951	3	0.5564	6.64384200	5.74120000	27.51840200	#	H	TIP4P
3267	952	2	-1.1128	24.43638000	15.62539600	40.05299200	#	O	TIP4P
3268	952	3	0.5564	24.21645300	15.04687100	40.78318000	#	H	TIP4P
3269	952	3	0.5564	24.17056300	16.49623900	40.34829700	#	H	TIP4P
3270	953	2	-1.1128	2.29189900	9.41892600	61.82175300	#	O	TIP4P
3271	953	3	0.5564	1.49075100	9.86521600	61.54749200	#	H	TIP4P
3272	953	3	0.5564	1.99232700	8.73332900	62.41878400	#	H	TIP4P
3273	954	2	-1.1128	7.48123400	2.08162700	35.47633100	#	O	TIP4P
3274	954	3	0.5564	8.23822300	1.49596500	35.46221800	#	H	TIP4P
3275	954	3	0.5564	6.72490800	1.49763700	35.42013800	#	H	TIP4P
3276	955	2	-1.1128	14.82401700	5.64653400	50.35473400	#	O	TIP4P
3277	955	3	0.5564	15.09655900	6.56371800	50.38167300	#	H	TIP4P
3278	955	3	0.5564	14.13240200	5.58224600	51.01334400	#	H	TIP4P
3279	956	2	-1.1128	9.57305200	25.36929900	39.59741200	#	O	TIP4P
3280	956	3	0.5564	9.20240200	26.19593600	39.90647800	#	H	TIP4P
3281	956	3	0.5564	10.09569300	25.61156600	38.83296100	#	H	TIP4P
3282	957	2	-1.1128	7.03278000	25.11849400	36.97352900	#	O	TIP4P
3283	957	3	0.5564	7.73276200	24.93751100	37.60082800	#	H	TIP4P
3284	957	3	0.5564	6.29045100	24.60157500	37.28653500	#	H	TIP4P
3285	958	2	-1.1128	30.20238200	21.77702200	58.87303300	#	O	TIP4P
3286	958	3	0.5564	29.81117600	22.31586800	58.18540400	#	H	TIP4P
3287	958	3	0.5564	31.13234900	22.00301300	58.85511700	#	H	TIP4P
3288	959	2	-1.1128	8.13423300	9.31998300	60.42863900	#	O	TIP4P
3289	959	3	0.5564	8.88166900	8.92155400	60.87453800	#	H	TIP4P
3290	959	3	0.5564	8.48958100	10.11218300	60.02567800	#	H	TIP4P
3291	960	2	-1.1128	28.34355500	24.03500200	54.54127200	#	O	TIP4P
3292	960	3	0.5564	28.57357600	24.95155700	54.69375100	#	H	TIP4P
3293	960	3	0.5564	28.34736300	23.63848300	55.41247200	#	H	TIP4P
3294	961	2	-1.1128	14.15482000	25.59760400	46.91991200	#	O	TIP4P
3295	961	3	0.5564	14.49955000	24.70849000	47.00279700	#	H	TIP4P
3296	961	3	0.5564	14.92184000	26.13489700	46.72185300	#	H	TIP4P
3297	962	2	-1.1128	22.24364500	33.15347000	47.35454200	#	O	TIP4P
3298	962	3	0.5564	21.47831800	33.32139300	46.80471600	#	H	TIP4P
3299	962	3	0.5564	22.99186300	33.30406600	46.77685500	#	H	TIP4P
3300	963	2	-1.1128	6.96603200	18.09276500	63.48218700	#	O	TIP4P
3301	963	3	0.5564	6.01992700	18.23765400	63.49337100	#	H	TIP4P
3302	963	3	0.5564	7.06451300	17.14410900	63.56332400	#	H	TIP4P
3303	964	2	-1.1128	12.78742600	28.93417700	58.27731200	#	O	TIP4P
3304	964	3	0.5564	12.76588000	29.50801500	57.51149400	#	H	TIP4P
3305	964	3	0.5564	12.98858600	28.06814800	57.92268600	#	H	TIP4P
3306	965	2	-1.1128	28.32082300	18.34782300	72.00854000	#	O	TIP4P
3307	965	3	0.5564	29.22149700	18.02465000	71.98453400	#	H	TIP4P
3308	965	3	0.5564	27.93213500	18.03608200	71.19124600	#	H	TIP4P
3309	966	2	-1.1128	27.65408900	4.87612100	26.22172900	#	O	TIP4P
3310	966	3	0.5564	28.56044900	5.06717400	26.46306300	#	H	TIP4P
3311	966	3	0.5564	27.30096600	5.71680200	25.93054000	#	H	TIP4P
3312	967	2	-1.1128	4.68217700	10.48375200	26.49588000	#	O	TIP4P
3313	967	3	0.5564	5.56626600	10.83610900	26.39358900	#	H	TIP4P
3314	967	3	0.5564	4.81560800	9.56765300	26.73917000	#	H	TIP4P
3315	968	2	-1.1128	1.81258800	5.15668600	47.68570200	#	O	TIP4P
3316	968	3	0.5564	1.50196000	6.03587300	47.90197100	#	H	TIP4P
3317	968	3	0.5564	1.49767700	5.00326800	46.79490200	#	H	TIP4P
3318	969	2	-1.1128	5.87476400	14.91342300	24.58632800	#	O	TIP4P
3319	969	3	0.5564	6.12547400	15.51592400	23.88606300	#	H	TIP4P
3320	969	3	0.5564	6.31283800	14.09182000	24.36430900	#	H	TIP4P
3321	970	2	-1.1128	27.13716800	30.34130700	62.28303000	#	O	TIP4P
3322	970	3	0.5564	26.83828200	30.53172200	61.39385000	#	H	TIP4P
3323	970	3	0.5564	28.03864700	30.03868500	62.17354900	#	H	TIP4P
3324	971	2	-1.1128	4.44792100	10.37990300	32.97729200	#	O	TIP4P
3325	971	3	0.5564	5.02884300	11.13821600	32.91627400	#	H	TIP4P
3326	971	3	0.5564	3.56588000	10.75131900	32.96036900	#	H	TIP4P
3327	972	2	-1.1128	9.02356300	11.88945300	46.18214700	#	O	TIP4P
3328	972	3	0.5564	9.71939600	12.44541800	45.83150300	#	H	TIP4P
3329	972	3	0.5564	8.56916400	11.55681500	45.40812800	#	H	TIP4P
3330	973	2	-1.1128	19.70177200	8.42377200	27.22819700	#	O	TIP4P
3331	973	3	0.5564	20.27957900	7.68892900	27.43405200	#	H	TIP4P
3332	973	3	0.5564	19.12186700	8.08880800	26.54428100	#	H	TIP4P
3333	974	2	-1.1128	8.39742100	14.08748000	50.03409400	#	O	TIP4P
3334	974	3	0.5564	8.22468600	14.44166900	49.16177300	#	H	TIP4P
3335	974	3	0.5564	9.26506000	13.68933900	49.96396700	#	H	TIP4P
3336	975	2	-1.1128	24.38092200	8.96713600	36.86677000	#	O	TIP4P
3337	975	3	0.5564	25.14187300	9.38303500	36.46153800	#	H	TIP4P
3338	975	3	0.5564	23.68453500	9.05480000	36.21593100	#	H	TIP4P
3339	976	2	-1.1128	28.40097400	32.74596700	61.85642800	#	O	TIP4P
3340	976	3	0.5564	29.13977800	33.33323400	62.01617300	#	H	TIP4P
3341	976	3	0.5564	27.71327300	33.31430400	61.50959800	#	H	TIP4P
3342	977	2	-1.1128	13.71762000	5.93721100	70.17103200	#	O	TIP4P
3343	977	3	0.5564	13.09644500	6.11997500	69.46607000	#	H	TIP4P
3344	977	3	0.5564	13.52345800	5.03778700	70.43479300	#	H	TIP4P
3345	978	2	-1.1128	5.98548000	26.80548500	62.03406400	#	O	TIP4P
3346	978	3	0.5564	5.09862800	27.08485400	61.80673600	#	H	TIP4P
3347	978	3	0.5564	6.55116800	27.49305900	61.68268200	#	H	TIP4P
3348	979	2	-1.1128	18.06431400	27.79932600	54.85911600	#	O	TIP4P
3349	979	3	0.5564	17.56722400	27.70052400	55.67113300	#	H	TIP4P
3350	979	3	0.5564	18.97262400	27.63456400	55.11221100	#	H	TIP4P
3351	980	2	-1.1128	16.98649100	14.82710400	43.11171000	#	O	TIP4P
3352	980	3	0.5564	17.34037200	15.17881500	42.29482600	#	H	TIP4P
3353	980	3	0.5564	17.74590800	14.45906700	43.56344600	#	H	TIP4P
3354	981	2	-1.1128	1.56430700	13.20686500	40.70737000	#	O	TIP4P
3355	981	3	0.5564	2.49786100	13.23014300	40.91753000	#	H	TIP4P
3356	981	3	0.5564	1.47692000	12.48730800	40.08220400	#	H	TIP4P
3357	982	2	-1.1128	26.72401100	28.83462800	48.37911400	#	O	TIP4P
3358	982	3	0.5564	26.24701800	28.99560500	49.19323700	#	H	TIP4P
3359	982	3	0.5564	27.64495900	28.81917200	48.63958900	#	H	TIP4P
3360	983	2	-1.1128	1.48568200	29.78570100	53.63417800	#	O	TIP4P
3361	983	3	0.5564	2.30821000	29.32533900	53.46760700	#	H	TIP4P
3362	983	3	0.5564	1.47116000	29.91565100	54.58240500	#	H	TIP4P
3363	984	2	-1.1128	8.97318400	15.02066500	32.34471300	#	O	TIP4P
3364	984	3	0.5564	9.20461400	14.11526100	32.55187100	#	H	TIP4P
3365	984	3	0.5564	9.80547700	15.43504500	32.11709700	#	H	TIP4P
3366	985	2	-1.1128	10.67738400	4.81146200	31.00429900	#	O	TIP4P
3367	985	3	0.5564	9.72990200	4.81619800	30.86832700	#	H	TIP4P
3368	985	3	0.5564	10.78322500	4.77988000	31.95510500	#	H	TIP4P
3369	986	2	-1.1128	1.54462300	26.69582900	61.07640300	#	O	TIP4P
3370	986	3	0.5564	1.47618000	25.99967900	60.42301100	#	H	TIP4P
3371	986	3	0.5564	2.46077300	26.97063400	61.03922300	#	H	TIP4P
3372	987	2	-1.1128	13.51606000	4.27400700	42.27502500	#	O	TIP4P
3373	987	3	0.5564	14.46796400	4.19842200	42.20870800	#	H	TIP4P
3374	987	3	0.5564	13.18891400	3.91795900	41.44892800	#	H	TIP4P
3375	988	2	-1.1128	9.76007800	2.09089800	46.86603300	#	O	TIP4P
3376	988	3	0.5564	10.11882700	1.46543400	47.49557600	#	H	TIP4P
3377	988	3	0.5564	10.52801400	2.45736400	46.42761800	#	H	TIP4P
3378	989	2	-1.1128	24.41339800	27.57327300	45.81588000	#	O	TIP4P
3379	989	3	0.5564	25.16493800	27.86102700	46.33416300	#	H	TIP4P
3380	989	3	0.5564	24.33524700	28.22830700	45.12229900	#	H	TIP4P
3381	990	2	-1.1128	13.83112100	15.18789200	29.39708000	#	O	TIP4P
3382	990	3	0.5564	14.14373300	15.28740500	30.29630300	#	H	TIP4P
3383	990	3	0.5564	13.87384100	14.24618200	29.23098200	#	H	TIP4P
3384	991	2	-1.1128	31.15542900	20.19329100	63.56383700	#	O	TIP4P
3385	991	3	0.5564	31.15736900	19.35267600	63.10602200	#	H	TIP4P
3386	991	3	0.5564	31.15131300	19.96085100	64.49237700	#	H	TIP4P
3387	992	2	-1.1128	24.48736600	22.29387900	17.75949300	#	O	TIP4P
3388	992	3	0.5564	23.73034100	22.78995700	18.07102400	#	H	TIP4P
3389	992	3	0.5564	24.19085700	21.38380300	17.75078700	#	H	TIP4P
3390	993	2	-1.1128	20.64061600	9.98297300	45.82435500	#	O	TIP4P
3391	993	3	0.5564	20.63814800	9.82753700	44.87986300	#	H	TIP4P
3392	993	3	0.5564	19.87039100	9.51486100	46.14662100	#	H	TIP4P
3393	994	2	-1.1128	3.43125400	29.15555300	50.96367100	#	O	TIP4P
3394	994	3	0.5564	2.57366600	28.80024500	50.73015400	#	H	TIP4P
3395	994	3	0.5564	4.05363800	28.48525700	50.68158500	#	H	TIP4P
3396	995	2	-1.1128	19.54333900	6.28614700	32.32165700	#	O	TIP4P
3397	995	3	0.5564	20.46195400	6.35119000	32.06060700	#	H	TIP4P
3398	995	3	0.5564	19.50008800	6.74101700	33.16276000	#	H	TIP4P
3399	996	2	-1.1128	28.33909200	12.98321800	48.42133700	#	O	TIP4P
3400	996	3	0.5564	27.97057900	13.43027000	47.65938300	#	H	TIP4P
3401	996	3	0.5564	27.88016700	13.36573000	49.16920300	#	H	TIP4P
3402	997	2	-1.1128	8.53510200	27.49938700	25.82304700	#	O	TIP4P
3403	997	3	0.5564	9.18431200	27.64642100	25.13519700	#	H	TIP4P
3404	997	3	0.5564	7.70826200	27.39028900	25.35329700	#	H	TIP4P
3405	998	2	-1.1128	1.46782500	12.34774200	35.81379100	#	O	TIP4P
3406	998	3	0.5564	2.31442800	12.36882100	35.36764100	#	H	TIP4P
3407	998	3	0.5564	1.48531400	11.53778800	36.32359500	#	H	TIP4P
3408	999	2	-1.1128	16.34982900	32.08893200	33.86386200	#	O	TIP4P
3409	999	3	0.5564	17.24452900	31.78132000	33.71853800	#	H	TIP4P
3410	999	3	0.5564	15.80627100	31.50424800	33.33573300	#	H	TIP4P
3411	1000	2	-1.1128	18.61611200	18.89009500	23.86447800	#	O	TIP4P
3412	1000	3	0.5564	18.35790600	18.03848400	24.21706800	#	H	TIP4P
3413	1000	3	0.5564	17.97795300	19.50388700	24.22813000	#	H	TIP4P
3414	1001	2	-1.1128	22.91650100	22.77869800	26.66080800	#	O	TIP4P
3415	1001	3	0.5564	22.14033200	22.24156000	26.50182600	#	H	TIP4P
3416	1001	3	0.5564	23.20412400	22.53068800	27.53944100	#	H	TIP4P
3417	1002	2	-1.1128	22.59259200	8.21711600	24.80129100	#	O	TIP4P
3418	1002	3	0.5564	21.90977500	7.69281800	25.21974500	#	H	TIP4P
3419	1002	3	0.5564	22.71115000	7.81431600	23.94110100	#	H	TIP4P
3420	1003	2	-1.1128	20.72456600	4.44403700	71.82630800	#	O	TIP4P
3421	1003	3	0.5564	19.82227800	4.71125400	72.00153600	#	H	TIP4P
3422	1003	3	0.5564	21.02403100	5.04367400	71.14294300	#	H	TIP4P
3423	1004	2	-1.1128	14.74820500	6.82425200	16.00054600	#	O	TIP4P
3424	1004	3	0.5564	14.07386900	6.69013700	16.66651600	#	H	TIP4P
3425	1004	3	0.5564	14.76976100	7.77202800	15.86830500	#	H	TIP4P
3426	1005	2	-1.1128	1.48139100	8.23156100	49.92775300	#	O	TIP4P
3427	1005	3	0.5564	1.61301500	9.00858900	50.47101500	#	H	TIP4P
3428	1005	3	0.5564	1.48909900	8.56254600	49.02963200	#	H	TIP4P
3429	1006	2	-1.1128	18.58733900	28.10335500	60.75946800	#	O	TIP4P
3430	1006	3	0.5564	18.95561300	28.98610700	60.79627600	#	H	TIP4P
3431	1006	3	0.5564	19.35030400	27.52575800	60.73717300	#	H	TIP4P
3432	1007	2	-1.1128	10.26405700	8.41440700	56.25261800	#	O	TIP4P
3433	1007	3	0.5564	11.21822800	8.33894000	56.26232700	#	H	TIP4P
3434	1007	3	0.5564	9.95177700	7.50958600	56.24939600	#	H	TIP4P
3435	1008	2	-1.1128	30.58448400	15.28647400	31.25707100	#	O	TIP4P
3436	1008	3	0.5564	31.17941000	15.20368700	32.00235100	#	H	TIP4P
3437	1008	3	0.5564	31.15678300	15.26853700	30.49000900	#	H	TIP4P
3438	1009	2	-1.1128	18.38077900	3.32697100	61.59003800	#	O	TIP4P
3439	1009	3	0.5564	18.28155100	3.61311200	62.49806300	#	H	TIP4P
3440	1009	3	0.5564	17.89164700	2.50556000	61.54245000	#	H	TIP4P
3441	1010	2	-1.1128	16.69510400	18.44244000	58.73688200	#	O	TIP4P
3442	1010	3	0.5564	17.19804000	18.29630600	59.53808800	#	H	TIP4P
3443	1010	3	0.5564	16.34137700	19.32662200	58.83348100	#	H	TIP4P
3444	1011	2	-1.1128	7.55422700	19.89631800	31.18981300	#	O	TIP4P
3445	1011	3	0.5564	8.48693000	20.11143300	31.19454000	#	H	TIP4P
3446	1011	3	0.5564	7.52842200	18.93978600	31.21455700	#	H	TIP4P
3447	1012	2	-1.1128	12.39660800	33.00336700	40.43323400	#	O	TIP4P
3448	1012	3	0.5564	11.55266900	33.32869700	40.74653900	#	H	TIP4P
3449	1012	3	0.5564	12.47838800	33.36088400	39.54908200	#	H	TIP4P
3450	1013	2	-1.1128	24.15755000	25.27992500	58.38556000	#	O	TIP4P
3451	1013	3	0.5564	23.43247100	24.67710600	58.55018700	#	H	TIP4P
3452	1013	3	0.5564	24.41439700	25.10481600	57.48024300	#	H	TIP4P
3453	1014	2	-1.1128	19.74785300	24.05808700	67.62646500	#	O	TIP4P
3454	1014	3	0.5564	19.91399000	24.92755200	67.26223800	#	H	TIP4P
3455	1014	3	0.5564	19.09545700	23.67335200	67.04115300	#	H	TIP4P
3456	1015	2	-1.1128	27.89888600	12.99220300	68.77988900	#	O	TIP4P
3457	1015	3	0.5564	27.99797700	12.04974800	68.91476200	#	H	TIP4P
3458	1015	3	0.5564	27.59429100	13.07459300	67.87619400	#	H	TIP4P
3459	1016	2	-1.1128	29.63331500	27.16035600	50.36154400	#	O	TIP4P
3460	1016	3	0.5564	29.12979600	26.74325600	49.66245300	#	H	TIP4P
3461	1016	3	0.5564	30.52831100	27.19636900	50.02402900	#	H	TIP4P
3462	1017	2	-1.1128	29.37272600	8.42201200	66.13307700	#	O	TIP4P
3463	1017	3	0.5564	30.12643100	9.00913800	66.19177000	#	H	TIP4P
3464	1017	3	0.5564	29.57434800	7.71110900	66.74151400	#	H	TIP4P
3465	1018	2	-1.1128	5.97151000	2.31579500	30.48526900	#	O	TIP4P
3466	1018	3	0.5564	6.90773300	2.50108600	30.55865500	#	H	TIP4P
3467	1018	3	0.5564	5.85056100	1.49683700	30.96580100	#	H	TIP4P
3468	1019	2	-1.1128	26.35876200	21.31548200	39.00463700	#	O	TIP4P
3469	1019	3	0.5564	26.32882900	20.86124100	38.16261600	#	H	TIP4P
3470	1019	3	0.5564	25.57509300	21.01714500	39.46625300	#	H	TIP4P
3471	1020	2	-1.1128	30.31937700	1.86909100	29.81769600	#	O	TIP4P
3472	1020	3	0.5564	30.00097400	1.64020000	28.94450600	#	H	TIP4P
3473	1020	3	0.5564	31.19572400	1.48656100	29.86149200	#	H	TIP4P
3474	1021	2	-1.1128	5.99112800	7.16402200	18.06109500	#	O	TIP4P
3475	1021	3	0.5564	5.96200400	6.80921700	17.17255900	#	H	TIP4P
3476	1021	3	0.5564	5.07224500	7.26809200	18.30819000	#	H	TIP4P
3477	1022	2	-1.1128	6.78838100	23.16105400	64.51129300	#	O	TIP4P
3478	1022	3	0.5564	7.13629000	23.72702700	63.82218800	#	H	TIP4P
3479	1022	3	0.5564	7.56100100	22.86977700	64.99549000	#	H	TIP4P
3480	1023	2	-1.1128	2.04611900	5.17932600	31.25426700	#	O	TIP4P
3481	1023	3	0.5564	1.49429000	4.49774700	30.87064500	#	H	TIP4P
3482	1023	3	0.5564	1.49535300	5.96219800	31.25441000	#	H	TIP4P
3483	1024	2	-1.1128	31.17274300	20.14251800	36.12743200	#	O	TIP4P
3484	1024	3	0.5564	31.09790000	20.52385100	35.25266600	#	H	TIP4P
3485	1024	3	0.5564	30.72512900	20.76552300	36.69991600	#	H	TIP4P
3486	1025	2	-1.1128	22.83779000	21.46147200	15.12791700	#	O	TIP4P
3487	1025	3	0.5564	23.26993100	22.30769400	15.24364500	#	H	TIP4P
3488	1025	3	0.5564	23.55308600	20.82542400	15.12284700	#	H	TIP4P
3489	1026	2	-1.1128	5.87245500	25.62675200	12.79524100	#	O	TIP4P
3490	1026	3	0.5564	5.73767100	26.53598100	13.06238900	#	H	TIP4P
3491	1026	3	0.5564	6.58576300	25.66701400	12.15821500	#	H	TIP4P
3492	1027	2	-1.1128	26.43787900	15.24945800	22.74787800	#	O	TIP4P
3493	1027	3	0.5564	25.73279500	14.62036200	22.90060900	#	H	TIP4P
3494	1027	3	0.5564	27.11472000	15.00968000	23.38082700	#	H	TIP4P
3495	1028	2	-1.1128	12.94505800	2.84630600	65.83550700	#	O	TIP4P
3496	1028	3	0.5564	12.53508900	3.70890000	65.77155700	#	H	TIP4P
3497	1028	3	0.5564	13.88511500	3.02664000	65.83357200	#	H	TIP4P
3498	1029	2	-1.1128	19.24664100	7.26409700	71.15867400	#	O	TIP4P
3499	1029	3	0.5564	18.66075900	8.00875900	71.02283400	#	H	TIP4P
3500	1029	3	0.5564	20.12549000	7.64258200	71.13406000	#	H	TIP4P
3501	1030	2	-1.1128	15.05557900	3.51862300	45.75749000	#	O	TIP4P
3502	1030	3	0.5564	14.89295200	3.93926000	44.91318600	#	H	TIP4P
3503	1030	3	0.5564	15.84588200	3.94453400	46.08953300	#	H	TIP4P
3504	1031	2	-1.1128	13.24587500	9.45342700	43.09865600	#	O	TIP4P
3505	1031	3	0.5564	12.90063000	9.00736700	42.32530700	#	H	TIP4P
3506	1031	3	0.5564	12.54261300	9.39198300	43.74509200	#	H	TIP4P
3507	1032	2	-1.1128	20.67399700	23.95138900	39.36306500	#	O	TIP4P
3508	1032	3	0.5564	21.31078500	23.25666800	39.19545100	#	H	TIP4P
3509	1032	3	0.5564	20.29382400	23.72856400	40.21279900	#	H	TIP4P
3510	1033	2	-1.1128	14.97777900	18.80064500	26.14699600	#	O	TIP4P
3511	1033	3	0.5564	14.12762800	18.64445700	25.73580200	#	H	TIP4P
3512	1033	3	0.5564	15.54128100	19.09167000	25.43005800	#	H	TIP4P
3513	1034	2	-1.1128	31.14662200	9.60722700	69.56891400	#	O	TIP4P
3514	1034	3	0.5564	31.17896900	9.15106600	68.72802000	#	H	TIP4P
3515	1034	3	0.5564	30.91544300	10.50851800	69.34427600	#	H	TIP4P
3516	1035	2	-1.1128	1.49483500	22.27926800	27.64011500	#	O	TIP4P
3517	1035	3	0.5564	1.64399900	23.22468100	27.65342400	#	H	TIP4P
3518	1035	3	0.5564	2.30326300	21.91379700	27.28080100	#	H	TIP4P
3519	1036	2	-1.1128	28.42719100	17.70562800	24.39374900	#	O	TIP4P
3520	1036	3	0.5564	27.53218000	17.64118800	24.06053000	#	H	TIP4P
3521	1036	3	0.5564	28.59985900	16.84925700	24.78496200	#	H	TIP4P
3522	1037	2	-1.1128	6.26278900	21.83798700	62.02517100	#	O	TIP4P
3523	1037	3	0.5564	6.58892800	21.16872800	62.62680000	#	H	TIP4P
3524	1037	3	0.5564	5.48963000	21.44254500	61.62257800	#	H	TIP4P
3525	1038	2	-1.1128	23.90345600	29.98157300	24.31682300	#	O	TIP4P
3526	1038	3	0.5564	23.06260700	29.53626200	24.21239800	#	H	TIP4P
3527	1038	3	0.5564	23.69073900	30.91296000	24.25765400	#	H	TIP4P
3528	1039	2	-1.1128	3.98388100	24.68069800	54.54266700	#	O	TIP4P
3529	1039	3	0.5564	3.43325200	23.92683100	54.33118400	#	H	TIP4P
3530	1039	3	0.5564	4.25289900	25.02754800	53.69204700	#	H	TIP4P
3531	1040	2	-1.1128	28.42570300	1.49986700	12.18560800	#	O	TIP4P
3532	1040	3	0.5564	27.70992600	1.52844600	12.82049200	#	H	TIP4P
3533	1040	3	0.5564	29.22014800	1.49793200	12.71954100	#	H	TIP4P
3534	1041	2	-1.1128	15.24829200	19.49328400	47.20400300	#	O	TIP4P
3535	1041	3	0.5564	15.77295600	18.87849500	47.71683300	#	H	TIP4P
3536	1041	3	0.5564	14.85293800	18.95654800	46.51709600	#	H	TIP4P
3537	1042	2	-1.1128	11.23402000	31.50574300	20.83624700	#	O	TIP4P
3538	1042	3	0.5564	11.43588900	30.90134500	20.12197600	#	H	TIP4P
3539	1042	3	0.5564	10.27940700	31.57568200	20.82888000	#	H	TIP4P
3540	1043	2	-1.1128	30.56514200	19.77497800	70.34601900	#	O	TIP4P
3541	1043	3	0.5564	29.72996100	19.79713900	69.87888600	#	H	TIP4P
3542	1043	3	0.5564	30.97632600	18.95794200	70.06386500	#	H	TIP4P
3543	1044	2	-1.1128	24.71628900	9.00917300	41.29629600	#	O	TIP4P
3544	1044	3	0.5564	24.19618200	9.51486600	40.67180100	#	H	TIP4P
3545	1044	3	0.5564	24.09957000	8.77864400	41.99109500	#	H	TIP4P
3546	1045	2	-1.1128	4.53511000	26.27090500	45.96848300	#	O	TIP4P
3547	1045	3	0.5564	3.99934600	27.05817100	46.06544000	#	H	TIP4P
3548	1045	3	0.5564	4.27993000	25.91002200	45.11943700	#	H	TIP4P
3549	1046	2	-1.1128	14.27457200	25.24723000	22.86460800	#	O	TIP4P
3550	1046	3	0.5564	15.12703400	24.81356300	22.82622900	#	H	TIP4P
3551	1046	3	0.5564	13.67781100	24.64295300	22.42306800	#	H	TIP4P
3552	1047	2	-1.1128	17.07307100	16.58349400	62.22334500	#	O	TIP4P
3553	1047	3	0.5564	17.14734000	16.26322800	63.12231500	#	H	TIP4P
3554	1047	3	0.5564	16.58816700	17.40515800	62.30059800	#	H	TIP4P
3555	1048	2	-1.1128	18.44849100	12.11913500	12.77645300	#	O	TIP4P
3556	1048	3	0.5564	18.51933600	12.68314600	13.54658600	#	H	TIP4P
3557	1048	3	0.5564	19.34425200	11.82495900	12.61121200	#	H	TIP4P
3558	1049	2	-1.1128	22.16531900	12.92184000	17.48617200	#	O	TIP4P
3559	1049	3	0.5564	22.03070200	13.10998000	16.55734800	#	H	TIP4P
3560	1049	3	0.5564	22.76251300	13.60727800	17.78577800	#	H	TIP4P
3561	1050	2	-1.1128	4.48646200	9.79273400	17.38251100	#	O	TIP4P
3562	1050	3	0.5564	4.17913000	9.87366900	18.28541100	#	H	TIP4P
3563	1050	3	0.5564	5.43955500	9.85337000	17.44707300	#	H	TIP4P
3564	1051	2	-1.1128	6.24728400	2.08005900	27.68885400	#	O	TIP4P
3565	1051	3	0.5564	5.51959500	1.49900000	27.46733600	#	H	TIP4P
3566	1051	3	0.5564	6.93619200	1.49353000	28.00129800	#	H	TIP4P
3567	1052	2	-1.1128	24.49854400	10.97717900	19.14335200	#	O	TIP4P
3568	1052	3	0.5564	23.56050700	10.89986800	18.96916300	#	H	TIP4P
3569	1052	3	0.5564	24.85731500	11.37860700	18.35191600	#	H	TIP4P
3570	1053	2	-1.1128	30.60015500	12.02450900	47.18814600	#	O	TIP4P
3571	1053	3	0.5564	31.17808000	12.29823800	47.90040100	#	H	TIP4P
3572	1053	3	0.5564	31.18794900	11.64696000	46.53378700	#	H	TIP4P
3573	1054	2	-1.1128	17.83622100	28.65583000	27.34593100	#	O	TIP4P
3574	1054	3	0.5564	18.45321300	28.58396700	26.61765300	#	H	TIP4P
3575	1054	3	0.5564	17.02595700	28.27003000	27.01297200	#	H	TIP4P
3576	1055	2	-1.1128	10.53718400	11.83555100	57.20129100	#	O	TIP4P
3577	1055	3	0.5564	9.87966300	11.14619000	57.29445700	#	H	TIP4P
3578	1055	3	0.5564	11.29759000	11.50845500	57.68193900	#	H	TIP4P
3579	1056	2	-1.1128	18.58370600	16.83189600	57.40908500	#	O	TIP4P
3580	1056	3	0.5564	19.50556400	16.61458700	57.27056900	#	H	TIP4P
3581	1056	3	0.5564	18.29921900	17.21195100	56.57790700	#	H	TIP4P
3582	1057	2	-1.1128	15.88136600	17.36774600	54.01595800	#	O	TIP4P
3583	1057	3	0.5564	16.30610100	16.87045500	54.71490900	#	H	TIP4P
3584	1057	3	0.5564	16.03363000	16.84926200	53.22588100	#	H	TIP4P
3585	1058	2	-1.1128	21.02679800	27.43552600	65.19174000	#	O	TIP4P
3586	1058	3	0.5564	21.63712300	26.94517100	65.74245500	#	H	TIP4P
3587	1058	3	0.5564	21.54991600	27.70870600	64.43811400	#	H	TIP4P
3588	1059	2	-1.1128	28.45855200	2.57239500	38.76764100	#	O	TIP4P
3589	1059	3	0.5564	28.48825700	3.51470400	38.60210700	#	H	TIP4P
3590	1059	3	0.5564	28.13879700	2.19475600	37.94826500	#	H	TIP4P
3591	1060	2	-1.1128	15.88971100	5.21597500	53.09655800	#	O	TIP4P
3592	1060	3	0.5564	16.00367800	6.15418700	52.94489600	#	H	TIP4P
3593	1060	3	0.5564	16.76584000	4.84676700	52.98558600	#	H	TIP4P
3594	1061	2	-1.1128	26.87704400	24.86758300	63.94486300	#	O	TIP4P
3595	1061	3	0.5564	26.66993800	25.42571000	64.69441800	#	H	TIP4P
3596	1061	3	0.5564	26.58752400	23.99420700	64.20872400	#	H	TIP4P
3597	1062	2	-1.1128	13.56097700	26.05368800	30.75612600	#	O	TIP4P
3598	1062	3	0.5564	12.63895800	26.13417100	30.51192400	#	H	TIP4P
3599	1062	3	0.5564	13.54919400	25.95224900	31.70786300	#	H	TIP4P
3600	1063	2	-1.1128	16.34316700	16.34201400	12.80017600	#	O	TIP4P
3601	1063	3	0.5564	16.10318200	15.41857600	12.72335700	#	H	TIP4P
3602	1063	3	0.5564	15.58325400	16.81632500	12.46284400	#	H	TIP4P
3603	1064	2	-1.1128	20.38429300	12.31194900	41.03491800	#	O	TIP4P
3604	1064	3	0.5564	19.99526400	13.05902500	40.58020300	#	H	TIP4P
3605	1064	3	0.5564	19.99548500	12.33420600	41.90931200	#	H	TIP4P
3606	1065	2	-1.1128	1.89674500	30.91980400	58.74827100	#	O	TIP4P
3607	1065	3	0.5564	1.49275500	31.39608500	59.47365400	#	H	TIP4P
3608	1065	3	0.5564	1.48574400	31.28337400	57.96397200	#	H	TIP4P
3609	1066	2	-1.1128	6.81268200	12.80441200	31.65168200	#	O	TIP4P
3610	1066	3	0.5564	6.66790600	13.74590500	31.55754300	#	H	TIP4P
3611	1066	3	0.5564	6.37895300	12.41767200	30.89106200	#	H	TIP4P
3612	1067	2	-1.1128	13.97701200	10.79676800	56.16862100	#	O	TIP4P
3613	1067	3	0.5564	13.19308100	10.24826000	56.13991600	#	H	TIP4P
3614	1067	3	0.5564	13.64232300	11.69351700	56.17610100	#	H	TIP4P
3615	1068	2	-1.1128	27.27666100	32.87202300	26.17413600	#	O	TIP4P
3616	1068	3	0.5564	28.12595300	33.30953800	26.23343100	#	H	TIP4P
3617	1068	3	0.5564	26.73311400	33.31366700	26.82662300	#	H	TIP4P
3618	1069	2	-1.1128	29.12054300	1.81289000	51.49650700	#	O	TIP4P
3619	1069	3	0.5564	29.19628600	2.74806500	51.68609300	#	H	TIP4P
3620	1069	3	0.5564	30.02456200	1.49938900	51.47008200	#	H	TIP4P
3621	1070	2	-1.1128	14.37069300	23.31461200	20.04682500	#	O	TIP4P
3622	1070	3	0.5564	14.08792500	22.42242600	19.84613000	#	H	TIP4P
3623	1070	3	0.5564	15.14557100	23.20262300	20.59751000	#	H	TIP4P
3624	1071	2	-1.1128	9.97297700	9.82918400	26.96319800	#	O	TIP4P
3625	1071	3	0.5564	10.59673800	10.54834100	27.06303200	#	H	TIP4P
3626	1071	3	0.5564	10.00355900	9.61259900	26.03132600	#	H	TIP4P
3627	1072	2	-1.1128	25.70243500	32.82493700	17.79254900	#	O	TIP4P
3628	1072	3	0.5564	26.44130300	33.30129600	18.17121500	#	H	TIP4P
3629	1072	3	0.5564	24.92931400	33.30131700	18.09516700	#	H	TIP4P
3630	1073	2	-1.1128	26.55714900	26.79042300	37.94829500	#	O	TIP4P
3631	1073	3	0.5564	26.50858200	26.43497600	38.83572400	#	H	TIP4P
3632	1073	3	0.5564	26.23141200	27.68672200	38.03061300	#	H	TIP4P
3633	1074	2	-1.1128	7.51185200	21.01244000	42.67198600	#	O	TIP4P
3634	1074	3	0.5564	8.30693300	21.53210500	42.55355600	#	H	TIP4P
3635	1074	3	0.5564	7.75748300	20.33919100	43.30652000	#	H	TIP4P
3636	1075	2	-1.1128	2.18929100	15.15236400	24.49354400	#	O	TIP4P
3637	1075	3	0.5564	2.57615200	14.27899400	24.55514800	#	H	TIP4P
3638	1075	3	0.5564	1.65909500	15.23643500	25.28604400	#	H	TIP4P
3639	1076	2	-1.1128	30.28926000	15.32205500	41.80607400	#	O	TIP4P
3640	1076	3	0.5564	29.69747600	14.60617400	41.57469200	#	H	TIP4P
3641	1076	3	0.5564	31.15122000	14.91042800	41.86787100	#	H	TIP4P
3642	1077	2	-1.1128	1.76082400	29.53166600	16.94040000	#	O	TIP4P
3643	1077	3	0.5564	1.49431900	28.68557200	16.58077400	#	H	TIP4P
3644	1077	3	0.5564	2.70183300	29.44258800	17.09139300	#	H	TIP4P
3645	1078	2	-1.1128	3.59435100	6.31018600	63.23231900	#	O	TIP4P
3646	1078	3	0.5564	3.90215800	5.49371200	63.62583700	#	H	TIP4P
3647	1078	3	0.5564	4.32622900	6.60671600	62.69134200	#	H	TIP4P
3648	1079	2	-1.1128	7.35031800	15.09793300	55.40937300	#	O	TIP4P
3649	1079	3	0.5564	7.73479400	14.27080400	55.11908300	#	H	TIP4P
3650	1079	3	0.5564	7.55786900	15.14459700	56.34263400	#	H	TIP4P
3651	1080	2	-1.1128	27.74301000	32.37322600	58.69412100	#	O	TIP4P
3652	1080	3	0.5564	28.46731100	32.01428500	59.20674100	#	H	TIP4P
3653	1080	3	0.5564	27.88609300	33.31959100	58.70648600	#	H	TIP4P
3654	1081	2	-1.1128	10.79139200	9.28426700	12.21642900	#	O	TIP4P
3655	1081	3	0.5564	11.27074800	8.45605900	12.19360500	#	H	TIP4P
3656	1081	3	0.5564	10.02709400	9.13460200	11.65994000	#	H	TIP4P
3657	1082	2	-1.1128	30.32964600	4.53134600	71.27534800	#	O	TIP4P
3658	1082	3	0.5564	30.45334800	3.70575800	70.80701600	#	H	TIP4P
3659	1082	3	0.5564	29.38023500	4.61975400	71.35922600	#	H	TIP4P
3660	1083	2	-1.1128	1.50318400	19.46365800	66.01269300	#	O	TIP4P
3661	1083	3	0.5564	1.46874000	19.34501000	66.96188600	#	H	TIP4P
3662	1083	3	0.5564	1.48890000	18.57431700	65.65899700	#	H	TIP4P
3663	1084	2	-1.1128	9.22652400	2.37144900	65.07956800	#	O	TIP4P
3664	1084	3	0.5564	8.88225800	1.49824800	65.26727400	#	H	TIP4P
3665	1084	3	0.5564	8.48651100	2.95908600	65.23219500	#	H	TIP4P
3666	1085	2	-1.1128	2.49509000	4.53529200	33.88866900	#	O	TIP4P
3667	1085	3	0.5564	1.54037300	4.60386400	33.89543600	#	H	TIP4P
3668	1085	3	0.5564	2.80086000	5.44233900	33.89029600	#	H	TIP4P
3669	1086	2	-1.1128	19.19016000	28.06388100	22.49470100	#	O	TIP4P
3670	1086	3	0.5564	19.15674800	28.59975500	21.70226500	#	H	TIP4P
3671	1086	3	0.5564	19.90936000	27.45144100	22.34010700	#	H	TIP4P
3672	1087	2	-1.1128	31.18468100	12.46996600	30.86896300	#	O	TIP4P
3673	1087	3	0.5564	31.06712200	12.46236000	31.81888600	#	H	TIP4P
3674	1087	3	0.5564	30.31186600	12.65176900	30.52057700	#	H	TIP4P
3675	1088	2	-1.1128	25.20760300	27.54399200	25.22086700	#	O	TIP4P
3676	1088	3	0.5564	25.42085200	28.25458100	25.82569700	#	H	TIP4P
3677	1088	3	0.5564	25.88154800	27.59537000	24.54308400	#	H	TIP4P
3678	1089	2	-1.1128	9.78864100	4.62058000	24.23133600	#	O	TIP4P
3679	1089	3	0.5564	10.65383400	4.67592300	24.63705800	#	H	TIP4P
3680	1089	3	0.5564	9.37312200	5.45800200	24.43700300	#	H	TIP4P
3681	1090	2	-1.1128	27.58003900	27.66728500	55.20732700	#	O	TIP4P
3682	1090	3	0.5564	27.09957200	28.47928100	55.04594100	#	H	TIP4P
3683	1090	3	0.5564	26.90037300	27.01856700	55.39022300	#	H	TIP4P
3684	1091	2	-1.1128	25.56715900	20.24738800	10.96217300	#	O	TIP4P
3685	1091	3	0.5564	26.48148000	19.96427900	10.97215300	#	H	TIP4P
3686	1091	3	0.5564	25.07592600	19.46363600	10.71589300	#	H	TIP4P
3687	1092	2	-1.1128	9.46610100	24.01913000	70.83904500	#	O	TIP4P
3688	1092	3	0.5564	9.95257400	23.23095700	71.08062400	#	H	TIP4P
3689	1092	3	0.5564	10.14205200	24.66229300	70.62535400	#	H	TIP4P
3690	1093	2	-1.1128	19.96492300	18.14515200	28.57072400	#	O	TIP4P
3691	1093	3	0.5564	19.20512400	17.73510800	28.15744200	#	H	TIP4P
3692	1093	3	0.5564	20.10504400	17.63909800	29.37104000	#	H	TIP4P
3693	1094	2	-1.1128	10.09407700	24.05596000	36.50157000	#	O	TIP4P
3694	1094	3	0.5564	9.58031800	24.01468900	35.69498400	#	H	TIP4P
3695	1094	3	0.5564	10.99593200	23.90273800	36.21976800	#	H	TIP4P
3696	1095	2	-1.1128	13.64635800	2.45395400	12.85734400	#	O	TIP4P
3697	1095	3	0.5564	13.68080500	1.49750000	12.84178200	#	H	TIP4P
3698	1095	3	0.5564	14.31376400	2.72839700	12.22847100	#	H	TIP4P
3699	1096	2	-1.1128	11.10443400	4.77914000	12.26261400	#	O	TIP4P
3700	1096	3	0.5564	11.33148600	3.85531400	12.36856000	#	H	TIP4P
3701	1096	3	0.5564	10.19029800	4.83504400	12.54093300	#	H	TIP4P
3702	1097	2	-1.1128	31.17138500	5.78970000	22.00205500	#	O	TIP4P
3703	1097	3	0.5564	31.13030500	6.73971200	21.89241400	#	H	TIP4P
3704	1097	3	0.5564	30.36015100	5.46748300	21.60923600	#	H	TIP4P
3705	1098	2	-1.1128	5.28140400	19.39809200	11.29483000	#	O	TIP4P
3706	1098	3	0.5564	4.43156400	18.96343800	11.22355100	#	H	TIP4P
3707	1098	3	0.5564	5.06998200	20.32944100	11.35902300	#	H	TIP4P
3708	1099	2	-1.1128	22.67299300	30.05830900	53.50326300	#	O	TIP4P
3709	1099	3	0.5564	21.84555100	30.53474800	53.43559600	#	H	TIP4P
3710	1099	3	0.5564	22.59545700	29.35062600	52.86341600	#	H	TIP4P
3711	1100	2	-1.1128	22.27530500	17.59370300	42.38772700	#	O	TIP4P
3712	1100	3	0.5564	21.70621800	18.28351100	42.72910100	#	H	TIP4P
3713	1100	3	0.5564	22.47238600	17.04690700	43.14825600	#	H	TIP4P
3714	1101	2	-1.1128	18.38613500	5.03632500	25.86184700	#	O	TIP4P
3715	1101	3	0.5564	19.00479500	5.59509100	25.39145200	#	H	TIP4P
3716	1101	3	0.5564	18.23523800	5.49025900	26.69094700	#	H	TIP4P
3717	1102	2	-1.1128	29.16225100	22.56714300	33.70350700	#	O	TIP4P
3718	1102	3	0.5564	29.48530400	21.72693000	33.37806800	#	H	TIP4P
3719	1102	3	0.5564	29.72598100	22.76792700	34.45058600	#	H	TIP4P
3720	1103	2	-1.1128	10.28122100	9.95429600	14.93406100	#	O	TIP4P
3721	1103	3	0.5564	10.77731400	10.10313700	15.73902700	#	H	TIP4P
3722	1103	3	0.5564	10.18487700	9.00327900	14.88391000	#	H	TIP4P
3723	1104	2	-1.1128	8.07029400	28.19289700	53.74232300	#	O	TIP4P
3724	1104	3	0.5564	8.30711600	28.61350800	54.56890200	#	H	TIP4P
3725	1104	3	0.5564	8.90002400	28.09925400	53.27433800	#	H	TIP4P
3726	1105	2	-1.1128	6.72693100	30.37755900	57.87442000	#	O	TIP4P
3727	1105	3	0.5564	6.39397100	31.26078500	57.71541900	#	H	TIP4P
3728	1105	3	0.5564	6.22810100	30.06532600	58.62934500	#	H	TIP4P
3729	1106	2	-1.1128	4.94884300	8.68042000	60.13458700	#	O	TIP4P
3730	1106	3	0.5564	5.30458200	8.56583500	61.01580900	#	H	TIP4P
3731	1106	3	0.5564	4.59299700	7.82175200	59.90590800	#	H	TIP4P
3732	1107	2	-1.1128	9.86784400	19.51187700	24.00059400	#	O	TIP4P
3733	1107	3	0.5564	9.45665000	20.28462600	23.61328300	#	H	TIP4P
3734	1107	3	0.5564	10.16991300	18.99946200	23.25064900	#	H	TIP4P
3735	1108	2	-1.1128	19.99488500	22.71826800	71.43726900	#	O	TIP4P
3736	1108	3	0.5564	20.59540200	22.02187200	71.70305800	#	H	TIP4P
3737	1108	3	0.5564	20.19863600	23.44738800	72.02301700	#	H	TIP4P
3738	1109	2	-1.1128	4.56582300	24.58777300	40.25588700	#	O	TIP4P
3739	1109	3	0.5564	4.43653800	24.48284600	39.31328000	#	H	TIP4P
3740	1109	3	0.5564	4.09148400	25.38968000	40.47538300	#	H	TIP4P
3741	1110	2	-1.1128	13.30367600	13.08683000	34.27582400	#	O	TIP4P
3742	1110	3	0.5564	13.90453400	12.35155800	34.39655800	#	H	TIP4P
3743	1110	3	0.5564	13.08188200	13.36397300	35.16477400	#	H	TIP4P
3744	1111	2	-1.1128	19.87863800	19.55918400	26.21366900	#	O	TIP4P
3745	1111	3	0.5564	20.32678600	20.19380400	26.77282300	#	H	TIP4P
3746	1111	3	0.5564	20.55123100	18.91371900	25.99635500	#	H	TIP4P
3747	1112	2	-1.1128	7.70493600	6.24490900	58.86636600	#	O	TIP4P
3748	1112	3	0.5564	6.81001200	6.58417500	58.85085200	#	H	TIP4P
3749	1112	3	0.5564	8.25788900	7.02622800	58.86245300	#	H	TIP4P
3750	1113	2	-1.1128	19.20172400	6.26487300	19.80633000	#	O	TIP4P
3751	1113	3	0.5564	20.08465500	6.54536300	20.04714100	#	H	TIP4P
3752	1113	3	0.5564	18.73514400	6.19926500	20.63953500	#	H	TIP4P
3753	1114	2	-1.1128	10.76597000	23.29322500	12.61409000	#	O	TIP4P
3754	1114	3	0.5564	11.20682200	24.01592600	13.06084000	#	H	TIP4P
3755	1114	3	0.5564	10.54578100	23.64331300	11.75084800	#	H	TIP4P
3756	1115	2	-1.1128	23.61396500	27.48072900	22.43532000	#	O	TIP4P
3757	1115	3	0.5564	23.86666700	26.68712500	22.90708800	#	H	TIP4P
3758	1115	3	0.5564	22.65685700	27.47032800	22.44357200	#	H	TIP4P
3759	1116	2	-1.1128	16.60352000	11.40337900	55.62705600	#	O	TIP4P
3760	1116	3	0.5564	16.32706500	12.28715200	55.86944000	#	H	TIP4P
3761	1116	3	0.5564	17.28481800	11.53727900	54.96816700	#	H	TIP4P
3762	1117	2	-1.1128	1.43185800	26.05372500	41.80967500	#	O	TIP4P
3763	1117	3	0.5564	1.44049600	26.00591400	40.85370900	#	H	TIP4P
3764	1117	3	0.5564	2.15868300	26.63731100	42.02735200	#	H	TIP4P
3765	1118	2	-1.1128	20.13598700	25.68146300	63.23362500	#	O	TIP4P
3766	1118	3	0.5564	20.43451000	24.82192300	63.53079100	#	H	TIP4P
3767	1118	3	0.5564	20.73513500	25.91125400	62.52338000	#	H	TIP4P
3768	1119	2	-1.1128	22.56586000	30.13701700	34.05727600	#	O	TIP4P
3769	1119	3	0.5564	22.93917300	29.25742000	34.00090200	#	H	TIP4P
3770	1119	3	0.5564	21.61915900	29.99805400	34.03122400	#	H	TIP4P
3771	1120	2	-1.1128	10.66328800	2.72402000	71.71533500	#	O	TIP4P
3772	1120	3	0.5564	10.35373200	2.66143000	70.81173700	#	H	TIP4P
3773	1120	3	0.5564	11.58733100	2.96103100	71.63658100	#	H	TIP4P
3774	1121	2	-1.1128	17.03820500	15.12055100	20.71780000	#	O	TIP4P
3775	1121	3	0.5564	17.87964300	14.95088300	20.29421200	#	H	TIP4P
3776	1121	3	0.5564	16.39286700	14.70892900	20.14305000	#	H	TIP4P
3777	1122	2	-1.1128	1.55822300	22.62834000	68.71451200	#	O	TIP4P
3778	1122	3	0.5564	1.49818200	21.67413200	68.76049300	#	H	TIP4P
3779	1122	3	0.5564	2.49788800	22.81043800	68.72459100	#	H	TIP4P
3780	1123	2	-1.1128	1.47686100	12.55358000	17.72227300	#	O	TIP4P
3781	1123	3	0.5564	2.37428700	12.22811000	17.65208200	#	H	TIP4P
3782	1123	3	0.5564	1.52151200	13.23864100	18.38930300	#	H	TIP4P
3783	1124	2	-1.1128	18.94059900	1.51178000	49.87251400	#	O	TIP4P
3784	1124	3	0.5564	19.74626000	1.57654900	49.35973000	#	H	TIP4P
3785	1124	3	0.5564	19.23734200	1.47187100	50.78167900	#	H	TIP4P
3786	1125	2	-1.1128	7.75849000	1.57373400	25.32303600	#	O	TIP4P
3787	1125	3	0.5564	7.58911100	2.49693800	25.13532000	#	H	TIP4P
3788	1125	3	0.5564	8.71271200	1.49860100	25.31625400	#	H	TIP4P
3789	1126	2	-1.1128	28.35058200	14.29988400	14.50714100	#	O	TIP4P
3790	1126	3	0.5564	27.85956600	15.12113000	14.53338000	#	H	TIP4P
3791	1126	3	0.5564	28.55709900	14.11437500	15.42320300	#	H	TIP4P
3792	1127	2	-1.1128	28.80438900	4.20563900	18.61410700	#	O	TIP4P
3793	1127	3	0.5564	29.42950400	4.70868800	19.13603200	#	H	TIP4P
3794	1127	3	0.5564	28.96892700	3.29410200	18.85547800	#	H	TIP4P
3795	1128	2	-1.1128	19.35115400	4.21445500	46.92718100	#	O	TIP4P
3796	1128	3	0.5564	19.52616100	4.48751600	46.02660300	#	H	TIP4P
3797	1128	3	0.5564	18.47245100	3.83605400	46.89676700	#	H	TIP4P
3798	1129	2	-1.1128	10.54818700	20.04844300	48.10082000	#	O	TIP4P
3799	1129	3	0.5564	11.17895500	20.76832900	48.11208500	#	H	TIP4P
3800	1129	3	0.5564	10.62853600	19.67265900	47.22414300	#	H	TIP4P
3801	1130	2	-1.1128	30.73766900	18.95231600	30.11455500	#	O	TIP4P
3802	1130	3	0.5564	30.89011300	18.01623500	29.98515400	#	H	TIP4P
3803	1130	3	0.5564	29.80475600	19.01757900	30.31862600	#	H	TIP4P
3804	1131	2	-1.1128	25.09354500	29.92306400	68.29437800	#	O	TIP4P
3805	1131	3	0.5564	24.85931900	30.84266300	68.41971400	#	H	TIP4P
3806	1131	3	0.5564	25.99579800	29.94652100	67.97559700	#	H	TIP4P
3807	1132	2	-1.1128	31.15049100	25.26546300	26.93291300	#	O	TIP4P
3808	1132	3	0.5564	31.14926700	24.61076800	27.63120000	#	H	TIP4P
3809	1132	3	0.5564	30.94615500	26.08907900	27.37578500	#	H	TIP4P
3810	1133	2	-1.1128	6.34651600	12.29822800	37.66316500	#	O	TIP4P
3811	1133	3	0.5564	6.94205600	11.62557000	37.33286900	#	H	TIP4P
3812	1133	3	0.5564	6.76487600	13.12612100	37.42694300	#	H	TIP4P
3813	1134	2	-1.1128	13.12771600	32.39217600	68.49636700	#	O	TIP4P
3814	1134	3	0.5564	12.97846700	33.30009900	68.76024600	#	H	TIP4P
3815	1134	3	0.5564	12.43930500	32.21207500	67.85614400	#	H	TIP4P
3816	1135	2	-1.1128	26.52658000	18.36185100	18.59308200	#	O	TIP4P
3817	1135	3	0.5564	26.37813800	19.27475000	18.34647900	#	H	TIP4P
3818	1135	3	0.5564	27.08565900	18.41059500	19.36850900	#	H	TIP4P
3819	1136	2	-1.1128	2.29892900	1.48715600	38.03841700	#	O	TIP4P
3820	1136	3	0.5564	2.22718400	2.25317800	37.46894700	#	H	TIP4P
3821	1136	3	0.5564	1.48440100	1.48474700	38.54118000	#	H	TIP4P
3822	1137	2	-1.1128	6.32224100	12.56275800	43.00182700	#	O	TIP4P
3823	1137	3	0.5564	6.37220700	12.44171500	43.95002700	#	H	TIP4P
3824	1137	3	0.5564	5.55710500	12.05332500	42.73485000	#	H	TIP4P
3825	1138	2	-1.1128	1.49510600	19.77587900	60.89990100	#	O	TIP4P
3826	1138	3	0.5564	1.49882000	20.25698700	60.07240200	#	H	TIP4P
3827	1138	3	0.5564	2.03398000	19.00309700	60.73062500	#	H	TIP4P
3828	1139	2	-1.1128	19.46967000	8.87004800	17.24246600	#	O	TIP4P
3829	1139	3	0.5564	19.43353100	8.04136700	17.72018400	#	H	TIP4P
3830	1139	3	0.5564	18.58290600	9.22425200	17.30894900	#	H	TIP4P
3831	1140	2	-1.1128	22.64911700	32.56131900	70.49102300	#	O	TIP4P
3832	1140	3	0.5564	22.04390200	33.30077500	70.43489900	#	H	TIP4P
3833	1140	3	0.5564	23.47078200	32.94629600	70.79580400	#	H	TIP4P
3834	1141	2	-1.1128	25.40801100	8.22685600	30.87257400	#	O	TIP4P
3835	1141	3	0.5564	26.35502200	8.10053100	30.93126000	#	H	TIP4P
3836	1141	3	0.5564	25.20903200	8.86982400	31.55318400	#	H	TIP4P
3837	1142	2	-1.1128	23.14749700	7.51638900	38.84935300	#	O	TIP4P
3838	1142	3	0.5564	22.59427800	6.78976400	38.56265400	#	H	TIP4P
3839	1142	3	0.5564	23.81464800	7.10716100	39.40041800	#	H	TIP4P
3840	1143	2	-1.1128	11.51715400	20.65303800	17.68318800	#	O	TIP4P
3841	1143	3	0.5564	12.20180000	21.23790300	18.00788100	#	H	TIP4P
3842	1143	3	0.5564	10.72192000	21.18570600	17.69304000	#	H	TIP4P
3843	1144	2	-1.1128	12.28652300	32.61865500	25.64640100	#	O	TIP4P
3844	1144	3	0.5564	11.62810100	33.31342900	25.64733300	#	H	TIP4P
3845	1144	3	0.5564	11.77901900	31.80707000	25.64730500	#	H	TIP4P
3846	1145	2	-1.1128	6.35715600	1.90330300	69.98819300	#	O	TIP4P
3847	1145	3	0.5564	6.92517400	1.49227300	70.63983800	#	H	TIP4P
3848	1145	3	0.5564	5.50346600	1.49078000	70.11960800	#	H	TIP4P
3849	1146	2	-1.1128	25.73346900	6.57465600	42.17052200	#	O	TIP4P
3850	1146	3	0.5564	26.24053000	7.16938000	42.72317500	#	H	TIP4P
3851	1146	3	0.5564	25.79749800	5.72625700	42.60909900	#	H	TIP4P
3852	1147	2	-1.1128	10.40936700	16.52961000	45.08892600	#	O	TIP4P
3853	1147	3	0.5564	10.92381300	16.13564000	44.38439400	#	H	TIP4P
3854	1147	3	0.5564	10.83896100	17.36771000	45.26000700	#	H	TIP4P
3855	1148	2	-1.1128	5.39754200	13.44712500	56.44900200	#	O	TIP4P
3856	1148	3	0.5564	4.54151100	13.24414900	56.82615300	#	H	TIP4P
3857	1148	3	0.5564	5.83557800	12.59902500	56.37771300	#	H	TIP4P
3858	1149	2	-1.1128	16.93701300	4.83548000	22.88952600	#	O	TIP4P
3859	1149	3	0.5564	16.38016800	4.38806700	23.52669000	#	H	TIP4P
3860	1149	3	0.5564	16.64637500	4.50185700	22.04072900	#	H	TIP4P
3861	1150	2	-1.1128	25.35548000	6.79158000	13.54003200	#	O	TIP4P
3862	1150	3	0.5564	24.67868800	6.22557800	13.91128200	#	H	TIP4P
3863	1150	3	0.5564	25.81175300	6.23684800	12.90732600	#	H	TIP4P
3864	1151	2	-1.1128	3.36844200	4.93811100	71.90861100	#	O	TIP4P
3865	1151	3	0.5564	2.58768300	4.43685800	71.67325200	#	H	TIP4P
3866	1151	3	0.5564	3.08262700	5.85140300	71.88770000	#	H	TIP4P
3867	1152	2	-1.1128	9.80502400	7.17036100	47.37908900	#	O	TIP4P
3868	1152	3	0.5564	9.35023200	6.97030300	46.56093700	#	H	TIP4P
3869	1152	3	0.5564	9.39986200	6.59306900	48.02624400	#	H	TIP4P
3870	1153	2	-1.1128	10.68880900	2.53506900	15.27916100	#	O	TIP4P
3871	1153	3	0.5564	10.36807400	1.64860900	15.11317700	#	H	TIP4P
3872	1153	3	0.5564	11.56916400	2.54601200	14.90354500	#	H	TIP4P
3873	1154	2	-1.1128	1.47179300	12.67909200	52.52963000	#	O	TIP4P
3874	1154	3	0.5564	1.78631400	12.78962000	51.63236100	#	H	TIP4P
3875	1154	3	0.5564	1.50038900	11.73409200	52.67926200	#	H	TIP4P
3876	1155	2	-1.1128	27.48467700	30.77466500	45.72278900	#	O	TIP4P
3877	1155	3	0.5564	27.86256600	30.02082600	46.17573300	#	H	TIP4P
3878	1155	3	0.5564	26.64898900	30.45571800	45.38201100	#	H	TIP4P
3879	1156	2	-1.1128	28.47964900	11.95302100	41.16960200	#	O	TIP4P
3880	1156	3	0.5564	28.82844400	11.33084000	41.80793100	#	H	TIP4P
3881	1156	3	0.5564	28.38381900	11.44319200	40.36516300	#	H	TIP4P
3882	1157	2	-1.1128	22.28838600	27.13325100	59.18093100	#	O	TIP4P
3883	1157	3	0.5564	21.73009500	26.58458600	59.73184900	#	H	TIP4P
3884	1157	3	0.5564	21.70629300	27.82204700	58.86005800	#	H	TIP4P
3885	1158	2	-1.1128	23.76414900	14.05376800	27.90820000	#	O	TIP4P
3886	1158	3	0.5564	23.41335800	14.92000400	27.70129100	#	H	TIP4P
3887	1158	3	0.5564	24.67667100	14.21535400	28.14783600	#	H	TIP4P
3888	1159	2	-1.1128	20.49143100	14.49836800	43.69750100	#	O	TIP4P
3889	1159	3	0.5564	20.75910300	14.80773000	42.83212300	#	H	TIP4P
3890	1159	3	0.5564	20.92948200	15.08952000	44.30977700	#	H	TIP4P
3891	1160	2	-1.1128	31.17191100	12.33727800	67.25370600	#	O	TIP4P
3892	1160	3	0.5564	30.26043800	12.56369300	67.43859900	#	H	TIP4P
3893	1160	3	0.5564	31.12216200	11.50198300	66.78890800	#	H	TIP4P
3894	1161	2	-1.1128	2.27528600	20.63615500	52.30393600	#	O	TIP4P
3895	1161	3	0.5564	2.39642400	20.45365000	51.37213700	#	H	TIP4P
3896	1161	3	0.5564	1.48780800	20.14769500	52.54376100	#	H	TIP4P
3897	1162	2	-1.1128	4.81937300	23.07740700	14.23072300	#	O	TIP4P
3898	1162	3	0.5564	4.84893600	23.91677300	14.68987900	#	H	TIP4P
3899	1162	3	0.5564	4.00767500	22.66824400	14.53066300	#	H	TIP4P
3900	1163	2	-1.1128	6.65230600	17.08191000	44.58656300	#	O	TIP4P
3901	1163	3	0.5564	6.63461900	17.58617700	43.77315400	#	H	TIP4P
3902	1163	3	0.5564	7.44379500	17.37862900	45.03571200	#	H	TIP4P
3903	1164	2	-1.1128	3.70577900	30.99228600	42.85827900	#	O	TIP4P
3904	1164	3	0.5564	3.47586300	30.93620000	41.93079600	#	H	TIP4P
3905	1164	3	0.5564	4.65928400	30.90986300	42.87457300	#	H	TIP4P
3906	1165	2	-1.1128	27.12611200	21.89195700	47.02538700	#	O	TIP4P
3907	1165	3	0.5564	26.25737200	21.49142800	47.05854700	#	H	TIP4P
3908	1165	3	0.5564	27.72894300	21.17394100	47.21846700	#	H	TIP4P
3909	1166	2	-1.1128	8.42051800	22.72220600	32.29005500	#	O	TIP4P
3910	1166	3	0.5564	8.51415000	23.54252500	32.77435200	#	H	TIP4P
3911	1166	3	0.5564	9.11257000	22.75316200	31.62949600	#	H	TIP4P
3912	1167	2	-1.1128	31.18960200	8.78665600	52.28887400	#	O	TIP4P
3913	1167	3	0.5564	30.38173000	9.07170200	51.86187900	#	H	TIP4P
3914	1167	3	0.5564	30.92090600	8.54834700	53.17614100	#	H	TIP4P
3915	1168	2	-1.1128	25.35275500	3.38793700	15.08040200	#	O	TIP4P
3916	1168	3	0.5564	24.48087900	3.61716200	14.75865500	#	H	TIP4P
3917	1168	3	0.5564	25.41394200	2.44109500	14.95399300	#	H	TIP4P
3918	1169	2	-1.1128	5.75614900	23.32197800	59.44744700	#	O	TIP4P
3919	1169	3	0.5564	6.53519900	22.77824100	59.33056000	#	H	TIP4P
3920	1169	3	0.5564	5.02428500	22.73966200	59.24369500	#	H	TIP4P
3921	1170	2	-1.1128	7.34748200	23.86747800	45.50041700	#	O	TIP4P
3922	1170	3	0.5564	6.56377200	24.39317500	45.66064500	#	H	TIP4P
3923	1170	3	0.5564	8.07582500	24.45441000	45.70354000	#	H	TIP4P
3924	1171	2	-1.1128	7.67601300	5.19839400	33.80183100	#	O	TIP4P
3925	1171	3	0.5564	8.35904900	4.81415100	33.25223800	#	H	TIP4P
3926	1171	3	0.5564	7.34410500	5.93677100	33.29107900	#	H	TIP4P
3927	1172	2	-1.1128	30.22380300	13.74323400	27.92966500	#	O	TIP4P
3928	1172	3	0.5564	29.91288200	12.84620200	27.80762500	#	H	TIP4P
3929	1172	3	0.5564	31.16042200	13.65093300	28.10418700	#	H	TIP4P
3930	1173	2	-1.1128	23.60163200	24.69559100	50.03324300	#	O	TIP4P
3931	1173	3	0.5564	23.54872500	24.80144100	50.98310000	#	H	TIP4P
3932	1173	3	0.5564	22.93894500	25.29373000	49.68783400	#	H	TIP4P
3933	1174	2	-1.1128	20.05121800	26.63169500	17.58185800	#	O	TIP4P
3934	1174	3	0.5564	19.30463600	27.22687300	17.51396600	#	H	TIP4P
3935	1174	3	0.5564	20.24757000	26.38882200	16.67704400	#	H	TIP4P
3936	1175	2	-1.1128	23.20644100	16.90766000	29.93552500	#	O	TIP4P
3937	1175	3	0.5564	22.71142200	17.66526800	30.24732300	#	H	TIP4P
3938	1175	3	0.5564	22.59422300	16.17526700	30.00637800	#	H	TIP4P
3939	1176	2	-1.1128	7.32502700	6.94262900	44.57475500	#	O	TIP4P
3940	1176	3	0.5564	6.43638500	6.63045900	44.74533100	#	H	TIP4P
3941	1176	3	0.5564	7.38805100	6.97753800	43.62027000	#	H	TIP4P
3942	1177	2	-1.1128	2.31924200	12.78698100	62.62522900	#	O	TIP4P
3943	1177	3	0.5564	2.77275100	11.95862700	62.78140200	#	H	TIP4P
3944	1177	3	0.5564	1.49555300	12.53467400	62.20796600	#	H	TIP4P
3945	1178	2	-1.1128	22.63183600	6.47340000	29.74009400	#	O	TIP4P
3946	1178	3	0.5564	21.73690300	6.77156200	29.57753200	#	H	TIP4P
3947	1178	3	0.5564	22.95952700	7.05878200	30.42286500	#	H	TIP4P
3948	1179	2	-1.1128	31.16054400	24.41230400	50.54219600	#	O	TIP4P
3949	1179	3	0.5564	30.24171300	24.49874900	50.79618400	#	H	TIP4P
3950	1179	3	0.5564	31.16242400	24.55561100	49.59578700	#	H	TIP4P
3951	1180	2	-1.1128	16.15202700	28.74511600	69.08007900	#	O	TIP4P
3952	1180	3	0.5564	16.61769400	29.55522500	68.87245000	#	H	TIP4P
3953	1180	3	0.5564	16.78364300	28.22610300	69.57799400	#	H	TIP4P
3954	1181	2	-1.1128	29.72414400	26.50179200	61.98408700	#	O	TIP4P
3955	1181	3	0.5564	29.29650300	26.24943400	61.16575400	#	H	TIP4P
3956	1181	3	0.5564	29.31760800	27.33561000	62.22011200	#	H	TIP4P
3957	1182	2	-1.1128	21.73376100	16.70842300	67.65145500	#	O	TIP4P
3958	1182	3	0.5564	21.23835200	17.35236800	68.15755400	#	H	TIP4P
3959	1182	3	0.5564	21.86333100	17.12210100	66.79804200	#	H	TIP4P
3960	1183	2	-1.1128	12.47544600	17.73834500	18.03047400	#	O	TIP4P
3961	1183	3	0.5564	12.70346700	18.38799800	18.69544700	#	H	TIP4P
3962	1183	3	0.5564	12.62645400	18.18462100	17.19724700	#	H	TIP4P
3963	1184	2	-1.1128	26.18333900	7.64752800	60.65738100	#	O	TIP4P
3964	1184	3	0.5564	25.65389100	8.26848700	61.15770700	#	H	TIP4P
3965	1184	3	0.5564	27.02826700	7.63570200	61.10703400	#	H	TIP4P
3966	1185	2	-1.1128	20.42003500	28.16724700	67.88409300	#	O	TIP4P
3967	1185	3	0.5564	20.16447300	29.08697700	67.81326400	#	H	TIP4P
3968	1185	3	0.5564	20.37446400	27.97697900	68.82108400	#	H	TIP4P
3969	1186	2	-1.1128	13.92151000	28.27201700	55.34414300	#	O	TIP4P
3970	1186	3	0.5564	13.60317500	27.68925600	54.65473400	#	H	TIP4P
3971	1186	3	0.5564	14.86544300	28.11592800	55.37343200	#	H	TIP4P
3972	1187	2	-1.1128	21.14915800	23.46221500	17.40177400	#	O	TIP4P
3973	1187	3	0.5564	21.19109000	22.58452000	17.02213600	#	H	TIP4P
3974	1187	3	0.5564	20.23116900	23.57304200	17.64925000	#	H	TIP4P
3975	1188	2	-1.1128	27.14107600	10.01104400	72.01296800	#	O	TIP4P
3976	1188	3	0.5564	26.18817100	10.10161400	72.01160300	#	H	TIP4P
3977	1188	3	0.5564	27.29230600	9.06586900	72.01511000	#	H	TIP4P
3978	1189	2	-1.1128	10.57571600	9.63666200	46.43973800	#	O	TIP4P
3979	1189	3	0.5564	11.29948300	10.23629200	46.25852900	#	H	TIP4P
3980	1189	3	0.5564	10.25015900	9.38531800	45.57540600	#	H	TIP4P
3981	1190	2	-1.1128	12.74209000	24.65210000	17.54091200	#	O	TIP4P
3982	1190	3	0.5564	13.09615100	25.04989000	18.33629600	#	H	TIP4P
3983	1190	3	0.5564	13.13194700	23.77825700	17.51558800	#	H	TIP4P
3984	1191	2	-1.1128	25.75907500	7.96222800	54.25833300	#	O	TIP4P
3985	1191	3	0.5564	26.37361100	7.23010200	54.30901900	#	H	TIP4P
3986	1191	3	0.5564	24.90977400	7.55183300	54.09555800	#	H	TIP4P
3987	1192	2	-1.1128	25.33440000	20.94888300	20.26237200	#	O	TIP4P
3988	1192	3	0.5564	25.75060400	20.31495100	20.84644000	#	H	TIP4P
3989	1192	3	0.5564	26.04790200	21.52284100	19.98359100	#	H	TIP4P
3990	1193	2	-1.1128	19.90745000	33.23415100	65.57274000	#	O	TIP4P
3991	1193	3	0.5564	20.85791100	33.25654800	65.46159500	#	H	TIP4P
3992	1193	3	0.5564	19.75665000	32.53522800	66.20913400	#	H	TIP4P
3993	1194	2	-1.1128	14.65330600	11.94141000	37.01065300	#	O	TIP4P
3994	1194	3	0.5564	14.40565100	11.05031500	36.76397700	#	H	TIP4P
3995	1194	3	0.5564	14.31970500	12.04522100	37.90181300	#	H	TIP4P
3996	1195	2	-1.1128	20.57230500	13.36137400	63.30692200	#	O	TIP4P
3997	1195	3	0.5564	20.14436400	12.53655100	63.07721500	#	H	TIP4P
3998	1195	3	0.5564	21.05028300	13.61204500	62.51639500	#	H	TIP4P
3999	1196	2	-1.1128	30.31695400	6.64073500	24.53465300	#	O	TIP4P
4000	1196	3	0.5564	29.37781100	6.62584800	24.35020300	#	H	TIP4P
4001	1196	3	0.5564	30.54773000	5.72307100	24.67910700	#	H	TIP4P
4002	1197	2	-1.1128	18.37595200	17.04520900	50.94055800	#	O	TIP4P
4003	1197	3	0.5564	17.46121200	17.32679700	50.92672500	#	H	TIP4P
4004	1197	3	0.5564	18.86868500	17.84008900	51.14454600	#	H	TIP4P
4005	1198	2	-1.1128	13.91559900	10.70448200	10.87897100	#	O	TIP4P
4006	1198	3	0.5564	13.35996800	10.01698600	11.24619700	#	H	TIP4P
4007	1198	3	0.5564	14.47004700	10.25125500	10.24383100	#	H	TIP4P
4008	1199	2	-1.1128	30.58100600	3.19414800	46.09437900	#	O	TIP4P
4009	1199	3	0.5564	31.17075700	2.45386000	46.23720700	#	H	TIP4P
4010	1199	3	0.5564	31.16044500	3.95305000	46.02692600	#	H	TIP4P
4011	1200	2	-1.1128	30.66153300	23.23080200	42.19289200	#	O	TIP4P
4012	1200	3	0.5564	29.75919300	22.91143100	42.19688600	#	H	TIP4P
4013	1200	3	0.5564	31.19692500	22.43734800	42.18872200	#	H	TIP4P
4014	1201	2	-1.1128	1.49721700	14.88680500	71.07470600	#	O	TIP4P
4015	1201	3	0.5564	1.49912400	14.39814800	70.25163800	#	H	TIP4P
4016	1201	3	0.5564	2.42184200	15.05590800	71.25554900	#	H	TIP4P
4017	1202	2	-1.1128	19.12610000	4.00240500	51.85199500	#	O	TIP4P
4018	1202	3	0.5564	19.91699000	3.67458900	52.28008400	#	H	TIP4P
4019	1202	3	0.5564	19.25017500	4.95070000	51.81233000	#	H	TIP4P
4020	1203	2	-1.1128	23.98425300	7.94476000	50.30811600	#	O	TIP4P
4021	1203	3	0.5564	24.20548700	8.80703500	49.95630700	#	H	TIP4P
4022	1203	3	0.5564	23.03203900	7.88977500	50.22750900	#	H	TIP4P
4023	1204	2	-1.1128	28.41913700	11.92665600	13.11949200	#	O	TIP4P
4024	1204	3	0.5564	27.50274400	11.85575600	13.38675100	#	H	TIP4P
4025	1204	3	0.5564	28.89669900	11.39523400	13.75648300	#	H	TIP4P
4026	1205	2	-1.1128	27.49206400	31.56398500	48.67670700	#	O	TIP4P
4027	1205	3	0.5564	27.48492500	31.41112900	49.62159700	#	H	TIP4P
4028	1205	3	0.5564	28.41503500	31.70000000	48.46257000	#	H	TIP4P
4029	1206	2	-1.1128	22.26041400	20.33127500	19.40205700	#	O	TIP4P
4030	1206	3	0.5564	21.56287400	19.71333500	19.18337900	#	H	TIP4P
4031	1206	3	0.5564	21.85824100	21.19368000	19.29840300	#	H	TIP4P
4032	1207	2	-1.1128	20.17063400	31.00219600	23.95783000	#	O	TIP4P
4033	1207	3	0.5564	20.97001800	31.42465700	24.27206400	#	H	TIP4P
4034	1207	3	0.5564	20.37798000	30.06772600	23.95564300	#	H	TIP4P
4035	1208	2	-1.1128	8.11603300	17.41737800	53.48645300	#	O	TIP4P
4036	1208	3	0.5564	8.78768700	16.97388700	54.00455500	#	H	TIP4P
4037	1208	3	0.5564	7.43362000	17.64114600	54.11928000	#	H	TIP4P
4038	1209	2	-1.1128	28.12658600	31.22654700	54.20739700	#	O	TIP4P
4039	1209	3	0.5564	28.28272000	32.07791000	54.61609400	#	H	TIP4P
4040	1209	3	0.5564	27.17746200	31.11015500	54.25037800	#	H	TIP4P
4041	1210	2	-1.1128	11.65776800	11.27470800	37.60688100	#	O	TIP4P
4042	1210	3	0.5564	11.66557100	11.64555500	38.48928900	#	H	TIP4P
4043	1210	3	0.5564	11.56202700	12.03189200	37.02918100	#	H	TIP4P
4044	1211	2	-1.1128	18.98230500	1.49761300	17.39105600	#	O	TIP4P
4045	1211	3	0.5564	19.75939800	1.50021300	17.94994100	#	H	TIP4P
4046	1211	3	0.5564	18.95839700	2.37501800	17.00919300	#	H	TIP4P
4047	1212	2	-1.1128	24.69985400	7.31759000	18.71849100	#	O	TIP4P
4048	1212	3	0.5564	24.90975900	7.93456900	18.01741500	#	H	TIP4P
4049	1212	3	0.5564	25.42219500	6.68959300	18.70975800	#	H	TIP4P
4050	1213	2	-1.1128	14.98048400	4.19257600	63.50047800	#	O	TIP4P
4051	1213	3	0.5564	14.83235500	3.66798500	62.71365300	#	H	TIP4P
4052	1213	3	0.5564	14.15557100	4.65850300	63.63708700	#	H	TIP4P
4053	1214	2	-1.1128	21.04566200	26.79678200	25.09177900	#	O	TIP4P
4054	1214	3	0.5564	20.44525400	27.54015800	25.03581100	#	H	TIP4P
4055	1214	3	0.5564	21.91774100	27.19118900	25.07936200	#	H	TIP4P
4056	1215	2	-1.1128	19.95963200	5.66527400	41.42764100	#	O	TIP4P
4057	1215	3	0.5564	19.98705100	6.37658100	40.78770200	#	H	TIP4P
4058	1215	3	0.5564	19.95464100	4.86714400	40.89925300	#	H	TIP4P
4059	1216	2	-1.1128	24.61153100	20.54228800	30.11273400	#	O	TIP4P
4060	1216	3	0.5564	24.52631700	19.66555500	29.73815500	#	H	TIP4P
4061	1216	3	0.5564	23.87635200	21.03281200	29.74513300	#	H	TIP4P
4062	1217	2	-1.1128	1.49311000	25.69296900	34.32901800	#	O	TIP4P
4063	1217	3	0.5564	1.50699100	26.60891200	34.60666500	#	H	TIP4P
4064	1217	3	0.5564	1.47019900	25.19484700	35.14607400	#	H	TIP4P
4065	1218	2	-1.1128	23.08046900	2.04421900	34.96194000	#	O	TIP4P
4066	1218	3	0.5564	22.31299000	1.47240900	34.94639400	#	H	TIP4P
4067	1218	3	0.5564	23.82625400	1.44446800	34.98020500	#	H	TIP4P
4068	1219	2	-1.1128	9.80603100	33.33507800	32.83766600	#	O	TIP4P
4069	1219	3	0.5564	10.15030300	33.23834900	31.94977400	#	H	TIP4P
4070	1219	3	0.5564	8.85559800	33.29191600	32.73256700	#	H	TIP4P
4071	1220	2	-1.1128	2.09852400	22.82263100	33.90520600	#	O	TIP4P
4072	1220	3	0.5564	1.50039500	22.09338500	34.06852600	#	H	TIP4P
4073	1220	3	0.5564	2.71458200	22.79630900	34.63733300	#	H	TIP4P
4074	1221	2	-1.1128	1.49586600	32.71920100	26.27272700	#	O	TIP4P
4075	1221	3	0.5564	1.55638500	33.30337600	27.02857700	#	H	TIP4P
4076	1221	3	0.5564	1.55506500	33.30065600	25.51467900	#	H	TIP4P
4077	1222	2	-1.1128	5.46325300	3.55718700	33.75710800	#	O	TIP4P
4078	1222	3	0.5564	6.07258800	3.03782600	33.23250600	#	H	TIP4P
4079	1222	3	0.5564	5.17284900	4.25364800	33.16817900	#	H	TIP4P
4080	1223	2	-1.1128	27.15665200	21.37056600	71.89511200	#	O	TIP4P
4081	1223	3	0.5564	27.59706100	21.59155800	71.07448200	#	H	TIP4P
4082	1223	3	0.5564	26.43848800	22.00014500	71.95916200	#	H	TIP4P
4083	1224	2	-1.1128	12.48878400	17.14193700	48.34629100	#	O	TIP4P
4084	1224	3	0.5564	12.07781700	17.49165300	49.13688400	#	H	TIP4P
4085	1224	3	0.5564	12.65891500	17.91185300	47.80359800	#	H	TIP4P
4086	1225	2	-1.1128	12.30685000	13.43057900	24.96042900	#	O	TIP4P
4087	1225	3	0.5564	11.62863900	13.96114700	24.54238800	#	H	TIP4P
4088	1225	3	0.5564	13.09826600	13.96621600	24.90579300	#	H	TIP4P
4089	1226	2	-1.1128	2.83015400	21.18675100	16.52590300	#	O	TIP4P
4090	1226	3	0.5564	3.51474700	20.84966300	17.10377400	#	H	TIP4P
4091	1226	3	0.5564	2.10561300	20.56939400	16.62661100	#	H	TIP4P
4092	1227	2	-1.1128	30.46754700	25.63343800	40.52906700	#	O	TIP4P
4093	1227	3	0.5564	29.66932500	25.31364200	40.10858500	#	H	TIP4P
4094	1227	3	0.5564	31.15886300	25.05901600	40.19989600	#	H	TIP4P
4095	1228	2	-1.1128	16.83589600	24.96117700	67.93438200	#	O	TIP4P
4096	1228	3	0.5564	16.36780700	24.17709600	67.64742900	#	H	TIP4P
4097	1228	3	0.5564	16.27014400	25.68763000	67.67280400	#	H	TIP4P
4098	1229	2	-1.1128	12.91647400	5.77799600	54.87196600	#	O	TIP4P
4099	1229	3	0.5564	13.58446300	6.13070400	54.28407200	#	H	TIP4P
4100	1229	3	0.5564	12.98179200	6.31698400	55.66029200	#	H	TIP4P
4101	1230	2	-1.1128	3.84099500	31.93119700	53.38805900	#	O	TIP4P
4102	1230	3	0.5564	3.93294200	31.37319800	52.61578000	#	H	TIP4P
4103	1230	3	0.5564	3.76854500	32.81831300	53.03591200	#	H	TIP4P
4104	1231	2	-1.1128	9.62972300	30.99217200	52.88985300	#	O	TIP4P
4105	1231	3	0.5564	10.37057500	30.38649000	52.86704300	#	H	TIP4P
4106	1231	3	0.5564	9.01559700	30.64461600	52.24310300	#	H	TIP4P
4107	1232	2	-1.1128	15.75809900	12.17440700	31.60521800	#	O	TIP4P
4108	1232	3	0.5564	15.11089000	12.55510500	31.01156800	#	H	TIP4P
4109	1232	3	0.5564	15.25930500	11.55660400	32.13978000	#	H	TIP4P
4110	1233	2	-1.1128	31.16362600	14.69203300	46.54916400	#	O	TIP4P
4111	1233	3	0.5564	31.18045500	14.26474600	45.69279200	#	H	TIP4P
4112	1233	3	0.5564	30.23643600	14.71978600	46.78533900	#	H	TIP4P
4113	1234	2	-1.1128	31.15489800	28.14852100	55.66268500	#	O	TIP4P
4114	1234	3	0.5564	30.32301700	27.78639700	55.35760700	#	H	TIP4P
4115	1234	3	0.5564	31.13800400	28.02243300	56.61139300	#	H	TIP4P
4116	1235	2	-1.1128	20.65781000	23.74500800	13.66938800	#	O	TIP4P
4117	1235	3	0.5564	20.05511900	23.71534200	12.92634300	#	H	TIP4P
4118	1235	3	0.5564	21.32366600	23.08853400	13.46467000	#	H	TIP4P
4119	1236	2	-1.1128	25.53440300	12.25741200	51.69102500	#	O	TIP4P
4120	1236	3	0.5564	26.32178500	11.95328800	52.14243400	#	H	TIP4P
4121	1236	3	0.5564	25.84922500	12.56754100	50.84194400	#	H	TIP4P
4122	1237	2	-1.1128	16.06102000	12.24473200	43.29013900	#	O	TIP4P
4123	1237	3	0.5564	15.64939000	11.43421400	43.58989500	#	H	TIP4P
4124	1237	3	0.5564	16.72139700	11.95926400	42.65875800	#	H	TIP4P
4125	1238	2	-1.1128	31.16379500	32.37344900	60.42184700	#	O	TIP4P
4126	1238	3	0.5564	31.17660700	31.82811700	59.63528400	#	H	TIP4P
4127	1238	3	0.5564	31.14857800	33.27152600	60.09100400	#	H	TIP4P
4128	1239	2	-1.1128	19.67846800	24.80947600	36.27450600	#	O	TIP4P
4129	1239	3	0.5564	20.15431000	24.78942700	35.44420200	#	H	TIP4P
4130	1239	3	0.5564	20.15682700	25.44241700	36.81003200	#	H	TIP4P
4131	1240	2	-1.1128	26.16048500	11.45678400	22.58530600	#	O	TIP4P
4132	1240	3	0.5564	25.80167600	11.89475300	21.81350900	#	H	TIP4P
4133	1240	3	0.5564	25.75171700	11.90364500	23.32655900	#	H	TIP4P
4134	1241	2	-1.1128	1.49112100	20.13227700	42.60368500	#	O	TIP4P
4135	1241	3	0.5564	1.49498600	21.08346800	42.71070000	#	H	TIP4P
4136	1241	3	0.5564	1.49132100	19.79019300	43.49767000	#	H	TIP4P
4137	1242	2	-1.1128	21.91713400	15.51111800	11.35477200	#	O	TIP4P
4138	1242	3	0.5564	21.12210800	15.09796600	11.69162600	#	H	TIP4P
4139	1242	3	0.5564	22.46471700	14.78004900	11.06855000	#	H	TIP4P
4140	1243	2	-1.1128	14.57791100	28.43164400	49.16371300	#	O	TIP4P
4141	1243	3	0.5564	15.39332400	28.05737000	48.83016800	#	H	TIP4P
4142	1243	3	0.5564	13.96927400	27.69344100	49.19284200	#	H	TIP4P
4143	1244	2	-1.1128	18.92062700	10.05714500	40.40973400	#	O	TIP4P
4144	1244	3	0.5564	18.20746100	10.59768600	40.74949800	#	H	TIP4P
4145	1244	3	0.5564	18.74644800	9.18301300	40.75871300	#	H	TIP4P
4146	1245	2	-1.1128	16.58468700	21.43402400	33.24292200	#	O	TIP4P
4147	1245	3	0.5564	17.08480400	21.78248400	32.50489100	#	H	TIP4P
4148	1245	3	0.5564	15.91065000	20.88724600	32.83926300	#	H	TIP4P
4149	1246	2	-1.1128	1.49954400	33.31175900	34.16565000	#	O	TIP4P
4150	1246	3	0.5564	1.72059900	32.41187200	33.92571000	#	H	TIP4P
4151	1246	3	0.5564	1.47702500	33.30635100	35.12256900	#	H	TIP4P
4152	1247	2	-1.1128	24.31144500	2.23368600	29.10989700	#	O	TIP4P
4153	1247	3	0.5564	24.86442300	1.45276000	29.13439800	#	H	TIP4P
4154	1247	3	0.5564	24.92644100	2.96507000	29.16547000	#	H	TIP4P
4155	1248	2	-1.1128	1.67131300	1.49720700	47.65786000	#	O	TIP4P
4156	1248	3	0.5564	2.60571200	1.46986600	47.45199100	#	H	TIP4P
4157	1248	3	0.5564	1.47534100	2.42848800	47.76053300	#	H	TIP4P
4158	1249	2	-1.1128	30.29802700	1.40974000	48.73596000	#	O	TIP4P
4159	1249	3	0.5564	29.81782500	2.22959000	48.61984200	#	H	TIP4P
4160	1249	3	0.5564	31.20532400	1.68078700	48.87588300	#	H	TIP4P
4161	1250	2	-1.1128	12.50199200	13.45228600	31.63993300	#	O	TIP4P
4162	1250	3	0.5564	11.88244800	13.94636200	31.10301000	#	H	TIP4P
4163	1250	3	0.5564	12.02907800	12.65553300	31.88028300	#	H	TIP4P
4164	1251	2	-1.1128	17.97482900	14.49981600	65.31965900	#	O	TIP4P
4165	1251	3	0.5564	18.19804600	14.09776500	64.48015900	#	H	TIP4P
4166	1251	3	0.5564	17.02184900	14.58697600	65.29816000	#	H	TIP4P
4167	1252	2	-1.1128	10.34785700	31.23433800	66.36246100	#	O	TIP4P
4168	1252	3	0.5564	9.40106600	31.09507200	66.38302100	#	H	TIP4P
4169	1252	3	0.5564	10.72074000	30.35327800	66.39283400	#	H	TIP4P
4170	1253	2	-1.1128	20.95771900	5.11239700	49.66320700	#	O	TIP4P
4171	1253	3	0.5564	20.96321200	5.82983100	49.02957400	#	H	TIP4P
4172	1253	3	0.5564	21.00966200	4.31990600	49.12889400	#	H	TIP4P
4173	1254	2	-1.1128	12.00931500	25.50599000	41.73855800	#	O	TIP4P
4174	1254	3	0.5564	12.13774600	25.09158000	42.59178800	#	H	TIP4P
4175	1254	3	0.5564	12.89496100	25.63950900	41.40086700	#	H	TIP4P
4176	1255	2	-1.1128	1.49250300	5.75379700	69.24606300	#	O	TIP4P
4177	1255	3	0.5564	1.68909000	4.83196200	69.07931200	#	H	TIP4P
4178	1255	3	0.5564	1.49858900	6.16098500	68.37981100	#	H	TIP4P
4179	1256	2	-1.1128	21.19868300	13.58343000	58.89916100	#	O	TIP4P
4180	1256	3	0.5564	20.88091800	14.16319700	59.59135200	#	H	TIP4P
4181	1256	3	0.5564	20.91429700	14.00162400	58.08646800	#	H	TIP4P
4182	1257	2	-1.1128	15.50131400	23.31819800	40.03297400	#	O	TIP4P
4183	1257	3	0.5564	14.90134600	24.04847600	39.88143600	#	H	TIP4P
4184	1257	3	0.5564	14.93997200	22.54287800	40.03498100	#	H	TIP4P
4185	1258	2	-1.1128	23.69780700	24.29111000	24.24526400	#	O	TIP4P
4186	1258	3	0.5564	23.44645500	23.39213700	24.03336300	#	H	TIP4P
4187	1258	3	0.5564	22.92128000	24.66574900	24.66105500	#	H	TIP4P
4188	1259	2	-1.1128	26.30789100	17.49930200	27.74069800	#	O	TIP4P
4189	1259	3	0.5564	25.92439100	16.66123200	27.99915400	#	H	TIP4P
4190	1259	3	0.5564	26.75937200	17.31293400	26.91749500	#	H	TIP4P
4191	1260	2	-1.1128	14.78187200	33.29281800	31.51552100	#	O	TIP4P
4192	1260	3	0.5564	14.31245200	33.33320600	30.68230700	#	H	TIP4P
4193	1260	3	0.5564	15.70703800	33.31726700	31.27118000	#	H	TIP4P
4194	1261	2	-1.1128	26.62187600	20.43081800	65.10974600	#	O	TIP4P
4195	1261	3	0.5564	26.81830100	20.31266600	64.18039700	#	H	TIP4P
4196	1261	3	0.5564	26.79295800	21.35795600	65.27521300	#	H	TIP4P
4197	1262	2	-1.1128	24.18500400	15.51214000	44.97014300	#	O	TIP4P
4198	1262	3	0.5564	23.45139100	15.07728400	45.40482000	#	H	TIP4P
4199	1262	3	0.5564	24.14794900	16.41591400	45.28327400	#	H	TIP4P
4200	1263	2	-1.1128	17.99284000	8.97900500	43.60747800	#	O	TIP4P
4201	1263	3	0.5564	18.32620600	9.85003800	43.39206800	#	H	TIP4P
4202	1263	3	0.5564	17.11490800	9.13711900	43.95456200	#	H	TIP4P
4203	1264	2	-1.1128	21.19532400	19.26792500	56.16623300	#	O	TIP4P
4204	1264	3	0.5564	21.82759700	19.71643100	56.72775300	#	H	TIP4P
4205	1264	3	0.5564	20.69036500	19.97356400	55.76210200	#	H	TIP4P
4206	1265	2	-1.1128	9.33075100	20.88714000	69.29160200	#	O	TIP4P
4207	1265	3	0.5564	9.69478000	21.46500500	68.62094100	#	H	TIP4P
4208	1265	3	0.5564	10.03113500	20.26090700	69.47470200	#	H	TIP4P
4209	1266	2	-1.1128	8.92364200	32.45828500	68.72247100	#	O	TIP4P
4210	1266	3	0.5564	9.85320000	32.68583800	68.70314000	#	H	TIP4P
4211	1266	3	0.5564	8.47026300	33.30128700	68.72773200	#	H	TIP4P
4212	1267	2	-1.1128	23.75051600	10.64750400	25.68804600	#	O	TIP4P
4213	1267	3	0.5564	24.58334700	10.38293000	25.29737200	#	H	TIP4P
4214	1267	3	0.5564	23.20308200	10.89357100	24.94239400	#	H	TIP4P
4215	1268	2	-1.1128	5.09995700	32.60160200	47.79705200	#	O	TIP4P
4216	1268	3	0.5564	6.05709700	32.59616900	47.78789900	#	H	TIP4P
4217	1268	3	0.5564	4.85835900	33.31515400	47.20653900	#	H	TIP4P
4218	1269	2	-1.1128	14.02194900	29.82452700	22.32202200	#	O	TIP4P
4219	1269	3	0.5564	14.02020500	30.72361700	22.65045400	#	H	TIP4P
4220	1269	3	0.5564	13.61235500	29.88352800	21.45889800	#	H	TIP4P
4221	1270	2	-1.1128	6.66951800	29.49702200	64.69847900	#	O	TIP4P
4222	1270	3	0.5564	6.73805900	28.72807200	64.13257300	#	H	TIP4P
4223	1270	3	0.5564	7.55656200	29.85579000	64.72434900	#	H	TIP4P
4224	1271	2	-1.1128	30.65524800	9.13453900	49.03688100	#	O	TIP4P
4225	1271	3	0.5564	31.15077500	9.58727800	48.35444900	#	H	TIP4P
4226	1271	3	0.5564	31.23537500	8.43102900	49.32801200	#	H	TIP4P
4227	1272	2	-1.1128	14.61341300	13.40252800	60.21256700	#	O	TIP4P
4228	1272	3	0.5564	13.68825400	13.63233100	60.12594300	#	H	TIP4P
4229	1272	3	0.5564	14.92639600	13.32327100	59.31146100	#	H	TIP4P
4230	1273	2	-1.1128	16.64992700	14.14087300	68.73407900	#	O	TIP4P
4231	1273	3	0.5564	15.73479700	13.87248800	68.65198800	#	H	TIP4P
4232	1273	3	0.5564	17.06801700	13.81498700	67.93706600	#	H	TIP4P
4233	1274	2	-1.1128	15.60982000	30.64148300	54.58295100	#	O	TIP4P
4234	1274	3	0.5564	15.95981600	30.63662900	55.47385500	#	H	TIP4P
4235	1274	3	0.5564	16.23251100	30.11885700	54.07763000	#	H	TIP4P
4236	1275	2	-1.1128	10.48849800	10.71554400	18.40725800	#	O	TIP4P
4237	1275	3	0.5564	11.33496600	11.03603400	18.71872100	#	H	TIP4P
4238	1275	3	0.5564	10.19709600	10.10784500	19.08697700	#	H	TIP4P
4239	1276	2	-1.1128	17.63604200	32.50435000	57.28046200	#	O	TIP4P
4240	1276	3	0.5564	17.45294800	33.28548200	57.80251600	#	H	TIP4P
4241	1276	3	0.5564	18.00706400	32.84205000	56.46527300	#	H	TIP4P
4242	1277	2	-1.1128	2.06212000	1.49972000	64.05891700	#	O	TIP4P
4243	1277	3	0.5564	2.95143100	1.55523000	63.70923700	#	H	TIP4P
4244	1277	3	0.5564	1.49940100	1.49883200	63.28459300	#	H	TIP4P
4245	1278	2	-1.1128	30.95745100	33.30392400	46.31230400	#	O	TIP4P
4246	1278	3	0.5564	30.00607400	33.20996100	46.26450600	#	H	TIP4P
4247	1278	3	0.5564	31.15199600	33.30215300	47.24952400	#	H	TIP4P
4248	1279	2	-1.1128	20.10677900	24.86613400	56.97051300	#	O	TIP4P
4249	1279	3	0.5564	20.85312000	25.13540500	57.50595700	#	H	TIP4P
4250	1279	3	0.5564	20.17191100	25.40299700	56.18072400	#	H	TIP4P
4251	1280	2	-1.1128	16.45522100	32.71853100	65.00632500	#	O	TIP4P
4252	1280	3	0.5564	15.70945500	33.30039600	64.85970300	#	H	TIP4P
4253	1280	3	0.5564	17.21513000	33.30046700	65.01730300	#	H	TIP4P
4254	1281	2	-1.1128	6.09567200	13.49798700	66.73584900	#	O	TIP4P
4255	1281	3	0.5564	6.34640000	12.57433200	66.72075500	#	H	TIP4P
4256	1281	3	0.5564	5.14663300	13.48704100	66.86009400	#	H	TIP4P
4257	1282	2	-1.1128	31.15257900	25.85591600	15.01709400	#	O	TIP4P
4258	1282	3	0.5564	31.14895700	25.11471600	15.62276800	#	H	TIP4P
4259	1282	3	0.5564	31.15009100	26.62808700	15.58275900	#	H	TIP4P
4260	1283	2	-1.1128	16.52337400	33.30077400	67.87897900	#	O	TIP4P
4261	1283	3	0.5564	15.62948200	33.10072700	67.60118500	#	H	TIP4P
4262	1283	3	0.5564	17.01745000	32.50286900	67.69065000	#	H	TIP4P
4263	1284	2	-1.1128	11.21527700	12.39079000	60.38788700	#	O	TIP4P
4264	1284	3	0.5564	10.29633200	12.13628100	60.47153300	#	H	TIP4P
4265	1284	3	0.5564	11.56828700	12.30998000	61.27393700	#	H	TIP4P
4266	1285	2	-1.1128	19.71488000	7.88018100	60.26019100	#	O	TIP4P
4267	1285	3	0.5564	20.08433500	8.48049000	59.61260900	#	H	TIP4P
4268	1285	3	0.5564	18.90988600	8.30792100	60.55217500	#	H	TIP4P
4269	1286	2	-1.1128	30.34060700	21.97585200	15.42629200	#	O	TIP4P
4270	1286	3	0.5564	29.70137800	22.68764600	15.45742100	#	H	TIP4P
4271	1286	3	0.5564	31.15200400	22.36767600	15.74930800	#	H	TIP4P
4272	1287	2	-1.1128	1.46679900	30.96553200	29.88611800	#	O	TIP4P
4273	1287	3	0.5564	1.49541900	31.45627600	29.06478900	#	H	TIP4P
4274	1287	3	0.5564	1.47687600	31.63754300	30.56768300	#	H	TIP4P
4275	1288	2	-1.1128	13.12710700	24.45530500	63.09304100	#	O	TIP4P
4276	1288	3	0.5564	13.02438600	25.05250800	63.83400600	#	H	TIP4P
4277	1288	3	0.5564	13.44699000	25.00920600	62.38093200	#	H	TIP4P
4278	1289	2	-1.1128	21.80587900	33.29790800	26.10309200	#	O	TIP4P
4279	1289	3	0.5564	22.55207700	33.30662600	25.50363900	#	H	TIP4P
4280	1289	3	0.5564	22.19736400	33.35811100	26.97449700	#	H	TIP4P
4281	1290	2	-1.1128	31.10154100	16.94077200	48.61413800	#	O	TIP4P
4282	1290	3	0.5564	31.16481500	17.19160400	47.69255700	#	H	TIP4P
4283	1290	3	0.5564	31.03839500	17.77163700	49.08520700	#	H	TIP4P
4284	1291	2	-1.1128	6.97436500	6.71216500	65.27266900	#	O	TIP4P
4285	1291	3	0.5564	7.57123100	6.00441800	65.02961200	#	H	TIP4P
4286	1291	3	0.5564	6.34392200	6.75204000	64.55351500	#	H	TIP4P
4287	1292	2	-1.1128	9.12822100	29.14210200	20.27196500	#	O	TIP4P
4288	1292	3	0.5564	8.31284400	29.63240900	20.37680700	#	H	TIP4P
4289	1292	3	0.5564	9.04786500	28.40938200	20.88261700	#	H	TIP4P
4290	1293	2	-1.1128	27.90738500	10.01481300	53.41026000	#	O	TIP4P
4291	1293	3	0.5564	28.41019400	9.40810400	53.95369200	#	H	TIP4P
4292	1293	3	0.5564	28.54442300	10.67343900	53.13344500	#	H	TIP4P
4293	1294	2	-1.1128	10.29007300	14.89177400	56.16400600	#	O	TIP4P
4294	1294	3	0.5564	10.14812300	14.55289700	57.04788600	#	H	TIP4P
4295	1294	3	0.5564	10.54554600	14.12499300	55.65115800	#	H	TIP4P
4296	1295	2	-1.1128	19.26177600	10.03200000	24.60411800	#	O	TIP4P
4297	1295	3	0.5564	19.19429200	10.35689100	23.70627400	#	H	TIP4P
4298	1295	3	0.5564	20.19230800	10.10476700	24.81636000	#	H	TIP4P
4299	1296	2	-1.1128	9.61410200	14.85110400	22.89630500	#	O	TIP4P
4300	1296	3	0.5564	9.78592800	13.99607000	22.50181100	#	H	TIP4P
4301	1296	3	0.5564	8.71797500	14.78727900	23.22662800	#	H	TIP4P
4302	1297	2	-1.1128	27.07356600	2.15081000	27.65339700	#	O	TIP4P
4303	1297	3	0.5564	27.58486400	2.84325400	28.07212000	#	H	TIP4P
4304	1297	3	0.5564	27.71925200	1.48441400	27.41837200	#	H	TIP4P
4305	1298	2	-1.1128	18.24767800	11.49345000	66.83859900	#	O	TIP4P
4306	1298	3	0.5564	18.82903200	12.20513000	66.57069700	#	H	TIP4P
4307	1298	3	0.5564	18.55612400	10.73313800	66.34563000	#	H	TIP4P
4308	1299	2	-1.1128	10.03263400	30.70917600	49.24258500	#	O	TIP4P
4309	1299	3	0.5564	10.28481200	31.34901100	49.90835400	#	H	TIP4P
4310	1299	3	0.5564	10.67854100	30.82131800	48.54511800	#	H	TIP4P
4311	1300	2	-1.1128	24.38473400	33.24162800	44.23074500	#	O	TIP4P
4312	1300	3	0.5564	23.45234100	33.30889700	44.02495200	#	H	TIP4P
4313	1300	3	0.5564	24.52933100	32.30837100	44.38680500	#	H	TIP4P
4314	1301	2	-1.1128	22.31437900	32.78887100	67.74662300	#	O	TIP4P
4315	1301	3	0.5564	22.26058600	31.83318500	67.74820600	#	H	TIP4P
4316	1301	3	0.5564	23.25283500	32.97644600	67.76528700	#	H	TIP4P
4317	1302	2	-1.1128	5.50669900	17.90789100	51.71012500	#	O	TIP4P
4318	1302	3	0.5564	6.16498800	18.58456900	51.86822500	#	H	TIP4P
4319	1302	3	0.5564	4.71974500	18.39229600	51.46055200	#	H	TIP4P
4320	1303	2	-1.1128	2.04076400	33.32037300	55.10990700	#	O	TIP4P
4321	1303	3	0.5564	1.85361400	33.21256200	56.04242200	#	H	TIP4P
4322	1303	3	0.5564	1.49472700	32.66344100	54.67803100	#	H	TIP4P
4323	1304	2	-1.1128	23.30560600	15.01041500	52.92892500	#	O	TIP4P
4324	1304	3	0.5564	23.81867400	15.50425400	53.56854700	#	H	TIP4P
4325	1304	3	0.5564	23.63868800	14.11537400	52.99364600	#	H	TIP4P
4326	1305	2	-1.1128	11.25673300	14.93208100	47.19904000	#	O	TIP4P
4327	1305	3	0.5564	10.45581800	14.50288600	47.49997100	#	H	TIP4P
4328	1305	3	0.5564	11.53488200	14.41716800	46.44159100	#	H	TIP4P
4329	1306	2	-1.1128	10.28637100	13.41798600	19.65792400	#	O	TIP4P
4330	1306	3	0.5564	10.46369300	14.34933000	19.78978300	#	H	TIP4P
4331	1306	3	0.5564	9.88489900	13.37061600	18.79027800	#	H	TIP4P
4332	1307	2	-1.1128	12.58529200	29.59103500	33.79184700	#	O	TIP4P
4333	1307	3	0.5564	12.24398600	29.46416200	34.67708400	#	H	TIP4P
4334	1307	3	0.5564	12.33830600	28.79397300	33.32288900	#	H	TIP4P
4335	1308	2	-1.1128	6.75550900	17.96166400	26.57942200	#	O	TIP4P
4336	1308	3	0.5564	7.22337900	18.73705000	26.26941000	#	H	TIP4P
4337	1308	3	0.5564	6.60880600	17.43878000	25.79119500	#	H	TIP4P
4338	1309	2	-1.1128	24.57787900	30.51093000	15.80480800	#	O	TIP4P
4339	1309	3	0.5564	25.30841100	29.94241100	16.04840900	#	H	TIP4P
4340	1309	3	0.5564	24.22180800	30.81514700	16.63961100	#	H	TIP4P
4341	1310	2	-1.1128	1.69814100	8.68675300	37.33932600	#	O	TIP4P
4342	1310	3	0.5564	2.55384000	8.31933100	37.56071400	#	H	TIP4P
4343	1310	3	0.5564	1.45874600	9.21377500	38.10167000	#	H	TIP4P
4344	1311	2	-1.1128	27.11990200	23.37454900	11.66606000	#	O	TIP4P
4345	1311	3	0.5564	27.69600000	22.81890900	12.19104300	#	H	TIP4P
4346	1311	3	0.5564	26.66433100	22.76602100	11.08435600	#	H	TIP4P
4347	1312	2	-1.1128	23.76978300	25.75486300	37.07277600	#	O	TIP4P
4348	1312	3	0.5564	23.93354000	25.96799800	37.99146400	#	H	TIP4P
4349	1312	3	0.5564	22.89322700	25.37033700	37.06818500	#	H	TIP4P
4350	1313	2	-1.1128	27.48535700	14.62269600	39.94041200	#	O	TIP4P
4351	1313	3	0.5564	28.04598400	14.03780400	39.43067600	#	H	TIP4P
4352	1313	3	0.5564	26.71776400	14.09263700	40.15505100	#	H	TIP4P
4353	1314	2	-1.1128	8.67158700	17.63761000	56.66921900	#	O	TIP4P
4354	1314	3	0.5564	8.54370500	18.56330700	56.87649500	#	H	TIP4P
4355	1314	3	0.5564	9.60341100	17.48338600	56.82462700	#	H	TIP4P
4356	1315	2	-1.1128	25.72981900	24.82468100	15.79927400	#	O	TIP4P
4357	1315	3	0.5564	25.01418500	24.43279500	15.29875000	#	H	TIP4P
4358	1315	3	0.5564	25.68632500	25.75769100	15.58990900	#	H	TIP4P
4359	1316	2	-1.1128	8.14545300	28.50629900	70.40998600	#	O	TIP4P
4360	1316	3	0.5564	8.05957600	29.31858000	69.91092900	#	H	TIP4P
4361	1316	3	0.5564	7.78922100	27.83107800	69.83257200	#	H	TIP4P
4362	1317	2	-1.1128	4.94834600	3.35478800	21.33119400	#	O	TIP4P
4363	1317	3	0.5564	4.35369700	3.94377800	21.79564500	#	H	TIP4P
4364	1317	3	0.5564	5.82198300	3.62036000	21.61835600	#	H	TIP4P
4365	1318	2	-1.1128	1.82226200	19.02275300	19.08099800	#	O	TIP4P
4366	1318	3	0.5564	1.86337600	19.48543800	19.91793400	#	H	TIP4P
4367	1318	3	0.5564	1.55197200	18.13383700	19.31122500	#	H	TIP4P
4368	1319	2	-1.1128	7.99143000	8.00525300	72.00460700	#	O	TIP4P
4369	1319	3	0.5564	8.94115500	7.88627100	72.01453600	#	H	TIP4P
4370	1319	3	0.5564	7.63810500	7.11565000	72.00459400	#	H	TIP4P
4371	1320	2	-1.1128	6.84558100	19.57584400	48.43197600	#	O	TIP4P
4372	1320	3	0.5564	6.55338800	19.06082100	49.18404500	#	H	TIP4P
4373	1320	3	0.5564	7.73305800	19.85218000	48.66057000	#	H	TIP4P
4374	1321	2	-1.1128	23.59115200	25.56624900	17.36077300	#	O	TIP4P
4375	1321	3	0.5564	24.14098400	25.50811500	18.14214200	#	H	TIP4P
4376	1321	3	0.5564	22.70723200	25.70862300	17.69936900	#	H	TIP4P
4377	1322	2	-1.1128	8.46270000	2.03831600	58.54769500	#	O	TIP4P
4378	1322	3	0.5564	9.01563200	1.44611500	58.03799200	#	H	TIP4P
4379	1322	3	0.5564	8.98738200	2.83306900	58.64417400	#	H	TIP4P
4380	1323	2	-1.1128	28.47013800	28.54755700	59.90192100	#	O	TIP4P
4381	1323	3	0.5564	28.24980300	29.27556300	59.32080900	#	H	TIP4P
4382	1323	3	0.5564	27.62365300	28.19474000	60.17617500	#	H	TIP4P
4383	1324	2	-1.1128	25.99271100	3.88153500	11.49980600	#	O	TIP4P
4384	1324	3	0.5564	26.32351600	3.13941500	10.99378400	#	H	TIP4P
4385	1324	3	0.5564	25.88346800	3.53780800	12.38645600	#	H	TIP4P
4386	1325	2	-1.1128	5.38823400	22.91384300	25.34295800	#	O	TIP4P
4387	1325	3	0.5564	4.65481900	22.74680800	25.93493200	#	H	TIP4P
4388	1325	3	0.5564	4.99400000	22.92934000	24.47085100	#	H	TIP4P
4389	1326	2	-1.1128	23.94169700	1.43954600	45.43486200	#	O	TIP4P
4390	1326	3	0.5564	24.88915500	1.51201400	45.55020400	#	H	TIP4P
4391	1326	3	0.5564	23.69532200	2.23691100	44.96609800	#	H	TIP4P
4392	1327	2	-1.1128	23.27874800	6.76456700	21.00606800	#	O	TIP4P
4393	1327	3	0.5564	22.77685200	6.16626000	20.45256800	#	H	TIP4P
4394	1327	3	0.5564	22.66648300	7.47062600	21.21305700	#	H	TIP4P
4395	1328	2	-1.1128	8.80217300	10.98642500	54.77190000	#	O	TIP4P
4396	1328	3	0.5564	9.59389500	10.48980300	54.56507900	#	H	TIP4P
4397	1328	3	0.5564	9.06529800	11.90300300	54.68894900	#	H	TIP4P
4398	1329	2	-1.1128	19.01846300	26.10934000	28.20844800	#	O	TIP4P
4399	1329	3	0.5564	18.07115600	26.10545400	28.34566000	#	H	TIP4P
4400	1329	3	0.5564	19.38196600	25.79141800	29.03490000	#	H	TIP4P
4401	1330	2	-1.1128	23.95513500	25.50891000	63.53312600	#	O	TIP4P
4402	1330	3	0.5564	24.27823100	26.38665600	63.73660100	#	H	TIP4P
4403	1330	3	0.5564	23.07613900	25.48311500	63.91119000	#	H	TIP4P
4404	1331	2	-1.1128	17.56591300	1.48624900	26.26576300	#	O	TIP4P
4405	1331	3	0.5564	17.76985200	1.49397000	27.20095300	#	H	TIP4P
4406	1331	3	0.5564	17.59498100	2.40712200	26.00618600	#	H	TIP4P
4407	1332	2	-1.1128	16.56402700	3.67217300	40.50890300	#	O	TIP4P
4408	1332	3	0.5564	17.51790700	3.63609500	40.57991300	#	H	TIP4P
4409	1332	3	0.5564	16.30227500	2.76879600	40.33106600	#	H	TIP4P
4410	1333	2	-1.1128	21.88284700	3.55763400	12.26088300	#	O	TIP4P
4411	1333	3	0.5564	22.35806600	4.38369600	12.35043800	#	H	TIP4P
4412	1333	3	0.5564	22.56605200	2.88724900	12.25409900	#	H	TIP4P
4413	1334	2	-1.1128	4.73624100	4.14724800	28.69030700	#	O	TIP4P
4414	1334	3	0.5564	4.17859600	4.16846800	29.46800500	#	H	TIP4P
4415	1334	3	0.5564	4.13887800	3.93781100	27.97230600	#	H	TIP4P
4416	1335	2	-1.1128	15.07122100	28.60643100	62.94707900	#	O	TIP4P
4417	1335	3	0.5564	15.76736600	28.23950200	62.40212300	#	H	TIP4P
4418	1335	3	0.5564	15.06608100	28.05781000	63.73143900	#	H	TIP4P
4419	1336	2	-1.1128	28.42098500	25.67819800	36.25984000	#	O	TIP4P
4420	1336	3	0.5564	28.42145100	26.56812300	35.90732800	#	H	TIP4P
4421	1336	3	0.5564	28.41311900	25.11384100	35.48674800	#	H	TIP4P
4422	1337	2	-1.1128	8.50427800	9.65745800	49.45859900	#	O	TIP4P
4423	1337	3	0.5564	8.51592200	10.61171400	49.53270000	#	H	TIP4P
4424	1337	3	0.5564	9.16147300	9.46054400	48.79110400	#	H	TIP4P
4425	1338	2	-1.1128	24.90649700	17.32922100	21.53618300	#	O	TIP4P
4426	1338	3	0.5564	25.58399600	17.82374600	21.99734600	#	H	TIP4P
4427	1338	3	0.5564	24.31229200	17.99737100	21.19452900	#	H	TIP4P
4428	1339	2	-1.1128	11.61169000	32.85922000	17.99022500	#	O	TIP4P
4429	1339	3	0.5564	11.76259100	33.30387800	18.82433500	#	H	TIP4P
4430	1339	3	0.5564	10.70798400	32.54833300	18.04404600	#	H	TIP4P
4431	1340	2	-1.1128	24.05833900	13.44751500	35.04732600	#	O	TIP4P
4432	1340	3	0.5564	23.39081600	14.02006700	35.42525400	#	H	TIP4P
4433	1340	3	0.5564	24.17712900	13.77362400	34.15526500	#	H	TIP4P
4434	1341	2	-1.1128	6.24373800	19.67720700	13.85546100	#	O	TIP4P
4435	1341	3	0.5564	5.91596100	20.56853900	13.97513700	#	H	TIP4P
4436	1341	3	0.5564	6.83436900	19.53730600	14.59560600	#	H	TIP4P
4437	1342	2	-1.1128	5.46766200	6.58030600	53.34666300	#	O	TIP4P
4438	1342	3	0.5564	4.96834700	6.24915300	54.09315700	#	H	TIP4P
4439	1342	3	0.5564	4.83622200	6.60540700	52.62771600	#	H	TIP4P
4440	1343	2	-1.1128	15.25328100	20.84303700	52.85363700	#	O	TIP4P
4441	1343	3	0.5564	15.99329000	20.34503500	52.50634400	#	H	TIP4P
4442	1343	3	0.5564	15.13107100	21.55816200	52.22922400	#	H	TIP4P
4443	1344	2	-1.1128	2.38348400	10.28319600	58.65040300	#	O	TIP4P
4444	1344	3	0.5564	2.83689600	9.44623300	58.54969500	#	H	TIP4P
4445	1344	3	0.5564	1.46980400	10.04397100	58.80594500	#	H	TIP4P
4446	1345	2	-1.1128	26.91015600	4.79602500	35.67696100	#	O	TIP4P
4447	1345	3	0.5564	27.46386400	5.07632100	34.94821300	#	H	TIP4P
4448	1345	3	0.5564	27.43594000	4.14461600	36.14112600	#	H	TIP4P
4449	1346	2	-1.1128	10.35857200	16.77525900	21.08026500	#	O	TIP4P
4450	1346	3	0.5564	10.84769400	17.59276100	20.98708100	#	H	TIP4P
4451	1346	3	0.5564	9.45049400	17.05164600	21.20369500	#	H	TIP4P
4452	1347	2	-1.1128	24.53883900	4.28004600	22.59236100	#	O	TIP4P
4453	1347	3	0.5564	24.88315500	5.17292900	22.57143300	#	H	TIP4P
4454	1347	3	0.5564	23.61462100	4.37376200	22.36155900	#	H	TIP4P
4455	1348	2	-1.1128	27.77687900	4.37899000	69.05994400	#	O	TIP4P
4456	1348	3	0.5564	26.92025500	3.95188000	69.05787800	#	H	TIP4P
4457	1348	3	0.5564	28.40350800	3.66045500	68.97464300	#	H	TIP4P
4458	1349	2	-1.1128	26.64526500	18.14535400	39.28428000	#	O	TIP4P
4459	1349	3	0.5564	25.74348900	18.31154800	39.00966900	#	H	TIP4P
4460	1349	3	0.5564	26.67387900	17.20436500	39.45734600	#	H	TIP4P
4461	1350	2	-1.1128	23.22328300	30.71132400	41.63616600	#	O	TIP4P
4462	1350	3	0.5564	22.62037200	30.90620200	42.35362800	#	H	TIP4P
4463	1350	3	0.5564	22.69664700	30.81909700	40.84416200	#	H	TIP4P
4464	1351	2	-1.1128	1.53702100	21.55216200	48.71150900	#	O	TIP4P
4465	1351	3	0.5564	1.49453400	22.21642200	48.02362500	#	H	TIP4P
4466	1351	3	0.5564	2.46385400	21.31848600	48.76255900	#	H	TIP4P
4467	1352	2	-1.1128	26.52569500	14.42137500	56.97718000	#	O	TIP4P
4468	1352	3	0.5564	25.93593100	14.54485600	56.23343000	#	H	TIP4P
4469	1352	3	0.5564	26.37735200	13.51702000	57.25352600	#	H	TIP4P
4470	1353	2	-1.1128	20.36318900	15.57382000	52.64462200	#	O	TIP4P
4471	1353	3	0.5564	20.67137600	15.49786600	53.54766300	#	H	TIP4P
4472	1353	3	0.5564	20.61868200	14.74798400	52.23358800	#	H	TIP4P
4473	1354	2	-1.1128	20.83486700	4.47088800	22.85941900	#	O	TIP4P
4474	1354	3	0.5564	19.88883800	4.59267400	22.93960200	#	H	TIP4P
4475	1354	3	0.5564	21.20496800	4.98906100	23.57408900	#	H	TIP4P
4476	1355	2	-1.1128	24.05966500	23.28646600	39.12719500	#	O	TIP4P
4477	1355	3	0.5564	23.87583500	23.07143800	38.21275500	#	H	TIP4P
4478	1355	3	0.5564	24.93766300	23.66742500	39.11231900	#	H	TIP4P
4479	1356	2	-1.1128	13.22261600	28.34618400	28.98611600	#	O	TIP4P
4480	1356	3	0.5564	14.14900800	28.23353900	28.77318000	#	H	TIP4P
4481	1356	3	0.5564	13.18446500	29.17742600	29.45920600	#	H	TIP4P
4482	1357	2	-1.1128	22.27121700	1.49938300	53.46135500	#	O	TIP4P
4483	1357	3	0.5564	23.19064000	1.49795800	53.19510000	#	H	TIP4P
4484	1357	3	0.5564	22.07772600	2.41742900	53.65105000	#	H	TIP4P
4485	1358	2	-1.1128	17.41672700	28.50723500	19.29507600	#	O	TIP4P
4486	1358	3	0.5564	16.55401200	28.67195200	19.67563300	#	H	TIP4P
4487	1358	3	0.5564	17.53047600	29.20336400	18.64800700	#	H	TIP4P
4488	1359	2	-1.1128	18.57892300	19.41675100	41.54286900	#	O	TIP4P
4489	1359	3	0.5564	19.52716600	19.53017100	41.60770000	#	H	TIP4P
4490	1359	3	0.5564	18.21602300	20.11098200	42.09294000	#	H	TIP4P
4491	1360	2	-1.1128	5.93781800	11.32026900	61.13533700	#	O	TIP4P
4492	1360	3	0.5564	6.73759900	11.49618600	61.63095400	#	H	TIP4P
4493	1360	3	0.5564	5.24894300	11.27777400	61.79856900	#	H	TIP4P
4494	1361	2	-1.1128	26.47614800	28.02773000	70.90410400	#	O	TIP4P
4495	1361	3	0.5564	25.82611200	28.69245700	71.13175000	#	H	TIP4P
4496	1361	3	0.5564	27.15538300	28.11745500	71.57255000	#	H	TIP4P
4497	1362	2	-1.1128	5.89455100	20.27773500	58.38261300	#	O	TIP4P
4498	1362	3	0.5564	6.25944500	19.42670400	58.14006400	#	H	TIP4P
4499	1362	3	0.5564	4.96327500	20.20823000	58.17255100	#	H	TIP4P
4500	1363	2	-1.1128	28.73151800	8.48928700	27.49142600	#	O	TIP4P
4501	1363	3	0.5564	28.98668200	8.56871800	26.57228800	#	H	TIP4P
4502	1363	3	0.5564	28.46763900	7.57437000	27.58902800	#	H	TIP4P
4503	1364	2	-1.1128	17.22842500	11.20379100	70.36215900	#	O	TIP4P
4504	1364	3	0.5564	17.42655600	11.46538600	69.46296800	#	H	TIP4P
4505	1364	3	0.5564	16.86602800	11.99181400	70.76703000	#	H	TIP4P
4506	1365	2	-1.1128	26.36465700	10.14372700	33.69844300	#	O	TIP4P
4507	1365	3	0.5564	27.23741700	10.04666200	33.31752100	#	H	TIP4P
4508	1365	3	0.5564	26.42286700	10.93555400	34.23309400	#	H	TIP4P
4509	1366	2	-1.1128	30.76254800	20.34313600	43.91662900	#	O	TIP4P
4510	1366	3	0.5564	31.15284500	19.49204300	44.11547600	#	H	TIP4P
4511	1366	3	0.5564	31.20786700	20.95435700	44.50342700	#	H	TIP4P
4512	1367	2	-1.1128	19.71007700	32.99385400	33.60032500	#	O	TIP4P
4513	1367	3	0.5564	19.95705200	32.09289700	33.39173100	#	H	TIP4P
4514	1367	3	0.5564	19.32016300	33.32887900	32.79288700	#	H	TIP4P
4515	1368	2	-1.1128	8.64443500	24.34276900	14.01375400	#	O	TIP4P
4516	1368	3	0.5564	7.73491400	24.04819400	14.06096800	#	H	TIP4P
4517	1368	3	0.5564	8.58723100	25.29823800	14.00770500	#	H	TIP4P
4518	1369	2	-1.1128	25.29605100	23.47806800	30.19521600	#	O	TIP4P
4519	1369	3	0.5564	25.33293800	23.02878400	31.03961900	#	H	TIP4P
4520	1369	3	0.5564	25.84598600	22.94882000	29.61754900	#	H	TIP4P
4521	1370	2	-1.1128	28.62937300	11.25240300	65.65501100	#	O	TIP4P
4522	1370	3	0.5564	28.45494300	10.74237500	64.86401300	#	H	TIP4P
4523	1370	3	0.5564	28.08410500	10.84526900	66.32818000	#	H	TIP4P
4524	1371	2	-1.1128	9.98802100	18.95401500	39.55122000	#	O	TIP4P
4525	1371	3	0.5564	9.91360600	19.78736800	39.08622800	#	H	TIP4P
4526	1371	3	0.5564	9.49635500	18.33396300	39.01267400	#	H	TIP4P
4527	1372	2	-1.1128	19.86687600	33.23722300	61.89301500	#	O	TIP4P
4528	1372	3	0.5564	20.06079800	33.30296800	62.82805700	#	H	TIP4P
4529	1372	3	0.5564	20.71976600	33.31291600	61.46513500	#	H	TIP4P
4530	1373	2	-1.1128	22.93172600	11.66824000	49.27504000	#	O	TIP4P
4531	1373	3	0.5564	22.62658600	10.82105600	48.95038500	#	H	TIP4P
4532	1373	3	0.5564	23.46714400	11.45379800	50.03895900	#	H	TIP4P
4533	1374	2	-1.1128	26.29888400	6.35988300	48.56007500	#	O	TIP4P
4534	1374	3	0.5564	26.15216800	7.28651000	48.74999300	#	H	TIP4P
4535	1374	3	0.5564	26.27568500	6.30409800	47.60478400	#	H	TIP4P
4536	1375	2	-1.1128	2.22586100	29.79923700	33.23188500	#	O	TIP4P
4537	1375	3	0.5564	2.60777800	28.93600700	33.07312100	#	H	TIP4P
4538	1375	3	0.5564	1.46929700	29.83823100	32.64680400	#	H	TIP4P
4539	1376	2	-1.1128	15.04710600	11.74779800	53.38374900	#	O	TIP4P
4540	1376	3	0.5564	15.70971400	12.08877600	52.78298500	#	H	TIP4P
4541	1376	3	0.5564	14.61451500	12.52760500	53.73159600	#	H	TIP4P
4542	1377	2	-1.1128	1.98431000	3.92366000	19.64851300	#	O	TIP4P
4543	1377	3	0.5564	2.71633400	3.30772900	19.68016400	#	H	TIP4P
4544	1377	3	0.5564	2.39666500	4.78738200	19.66191300	#	H	TIP4P
4545	1378	2	-1.1128	14.73760000	32.59533400	36.62537800	#	O	TIP4P
4546	1378	3	0.5564	14.37960400	31.74643800	36.88508200	#	H	TIP4P
4547	1378	3	0.5564	14.42081800	33.20377100	37.29297400	#	H	TIP4P
4548	1379	2	-1.1128	16.34903300	19.38450100	68.95577400	#	O	TIP4P
4549	1379	3	0.5564	16.16511000	19.60835700	68.04347300	#	H	TIP4P
4550	1379	3	0.5564	17.28931600	19.20629200	68.97428000	#	H	TIP4P
4551	1380	2	-1.1128	29.81220900	4.88942900	32.17800700	#	O	TIP4P
4552	1380	3	0.5564	30.32487100	4.25104000	31.68215600	#	H	TIP4P
4553	1380	3	0.5564	29.13364600	4.36968000	32.60887000	#	H	TIP4P
4554	1381	2	-1.1128	26.68934200	1.99878800	17.87500400	#	O	TIP4P
4555	1381	3	0.5564	25.98201000	1.49481800	17.47260300	#	H	TIP4P
4556	1381	3	0.5564	26.65006000	2.85306700	17.44501000	#	H	TIP4P
4557	1382	2	-1.1128	19.20708600	33.20279300	69.19973600	#	O	TIP4P
4558	1382	3	0.5564	19.30877600	33.30230900	70.14630300	#	H	TIP4P
4559	1382	3	0.5564	19.85315500	32.53939700	68.95739100	#	H	TIP4P
4560	1383	2	-1.1128	3.24596900	32.78408900	13.18865600	#	O	TIP4P
4561	1383	3	0.5564	2.58053900	33.28941500	12.72166600	#	H	TIP4P
4562	1383	3	0.5564	4.04667500	33.30083200	13.09877300	#	H	TIP4P
4563	1384	2	-1.1128	11.40612300	17.79820000	64.82055500	#	O	TIP4P
4564	1384	3	0.5564	11.29499600	16.86092200	64.97990700	#	H	TIP4P
4565	1384	3	0.5564	10.54613400	18.09458600	64.52255400	#	H	TIP4P
4566	1385	2	-1.1128	3.96451300	6.81298900	67.13763400	#	O	TIP4P
4567	1385	3	0.5564	3.91334000	7.76592000	67.21204000	#	H	TIP4P
4568	1385	3	0.5564	3.37370800	6.59652300	66.41629900	#	H	TIP4P
4569	1386	2	-1.1128	23.29213700	4.19101800	17.24885700	#	O	TIP4P
4570	1386	3	0.5564	23.37946900	4.89860200	17.88755100	#	H	TIP4P
4571	1386	3	0.5564	23.99908100	3.58325300	17.46584800	#	H	TIP4P
4572	1387	2	-1.1128	11.13928200	27.45369200	12.87872900	#	O	TIP4P
4573	1387	3	0.5564	10.23744000	27.76323600	12.96296300	#	H	TIP4P
4574	1387	3	0.5564	11.20390100	26.73020500	13.50212400	#	H	TIP4P
4575	1388	2	-1.1128	6.07585500	9.06576700	37.83873400	#	O	TIP4P
4576	1388	3	0.5564	6.68384400	8.52396500	38.34175600	#	H	TIP4P
4577	1388	3	0.5564	5.28828100	8.52822900	37.75500300	#	H	TIP4P
4578	1389	2	-1.1128	14.21908300	22.01411700	46.42406800	#	O	TIP4P
4579	1389	3	0.5564	13.47646100	21.56169800	46.82414500	#	H	TIP4P
4580	1389	3	0.5564	14.36954600	21.54776400	45.60181100	#	H	TIP4P
4581	1390	2	-1.1128	5.93503200	32.15534800	32.01461200	#	O	TIP4P
4582	1390	3	0.5564	6.77311900	31.71466400	31.87447600	#	H	TIP4P
4583	1390	3	0.5564	6.14011700	32.87799600	32.60786700	#	H	TIP4P
4584	1391	2	-1.1128	15.37689400	25.67097000	54.07286700	#	O	TIP4P
4585	1391	3	0.5564	15.40557700	25.44548100	55.00268600	#	H	TIP4P
4586	1391	3	0.5564	16.26307700	25.97147500	53.87135100	#	H	TIP4P
4587	1392	2	-1.1128	11.20618900	15.18501700	60.33537300	#	O	TIP4P
4588	1392	3	0.5564	11.73087000	15.29358700	61.12856600	#	H	TIP4P
4589	1392	3	0.5564	10.32769500	14.97933900	60.65502300	#	H	TIP4P
4590	1393	2	-1.1128	1.68317100	27.87227300	57.89492300	#	O	TIP4P
4591	1393	3	0.5564	1.48134500	28.60842900	57.31736400	#	H	TIP4P
4592	1393	3	0.5564	1.49998400	28.20062100	58.77518500	#	H	TIP4P
4593	1394	2	-1.1128	20.47054600	11.05514000	60.49700000	#	O	TIP4P
4594	1394	3	0.5564	21.27573900	11.46690100	60.81060300	#	H	TIP4P
4595	1394	3	0.5564	19.83605400	11.77055800	60.45424400	#	H	TIP4P
4596	1395	2	-1.1128	5.46554300	27.60016200	56.23044400	#	O	TIP4P
4597	1395	3	0.5564	5.97185800	26.83107400	55.96894700	#	H	TIP4P
4598	1395	3	0.5564	6.08180100	28.32904300	56.15840800	#	H	TIP4P
4599	1396	2	-1.1128	28.02693200	10.26945800	30.68574500	#	O	TIP4P
4600	1396	3	0.5564	28.93692800	10.31650200	30.97887900	#	H	TIP4P
4601	1396	3	0.5564	28.08589300	10.15929700	29.73673600	#	H	TIP4P
4602	1397	2	-1.1128	23.54737500	32.83558800	38.24119400	#	O	TIP4P
4603	1397	3	0.5564	23.29259900	31.92655600	38.39925000	#	H	TIP4P
4604	1397	3	0.5564	23.08780800	33.33452000	38.91654400	#	H	TIP4P
4605	1398	2	-1.1128	20.74495600	2.02382900	46.02170100	#	O	TIP4P
4606	1398	3	0.5564	21.08968800	1.44306600	45.34339000	#	H	TIP4P
4607	1398	3	0.5564	20.40610600	1.43285700	46.69413200	#	H	TIP4P
4608	1399	2	-1.1128	28.58135000	9.33616300	58.44620100	#	O	TIP4P
4609	1399	3	0.5564	29.00780900	8.53116700	58.15235300	#	H	TIP4P
4610	1399	3	0.5564	27.77215100	9.04055400	58.86338700	#	H	TIP4P
4611	1400	2	-1.1128	28.38368500	15.12454100	62.78897900	#	O	TIP4P
4612	1400	3	0.5564	28.62245200	15.51261200	61.94718200	#	H	TIP4P
4613	1400	3	0.5564	27.86570600	14.35306600	62.55929400	#	H	TIP4P
4614	1401	2	-1.1128	1.66951400	1.52462500	44.03459000	#	O	TIP4P
4615	1401	3	0.5564	2.62393300	1.45190800	44.03983000	#	H	TIP4P
4616	1401	3	0.5564	1.44239500	1.76738200	44.93220800	#	H	TIP4P
4617	1402	2	-1.1128	26.57225900	33.29947000	52.09436500	#	O	TIP4P
4618	1402	3	0.5564	27.51179300	33.30056300	52.27741600	#	H	TIP4P
4619	1402	3	0.5564	26.15950200	33.31317700	52.95789000	#	H	TIP4P
4620	1403	2	-1.1128	16.13287000	26.00921300	41.61663700	#	O	TIP4P
4621	1403	3	0.5564	16.53348400	25.15858300	41.79599200	#	H	TIP4P
4622	1403	3	0.5564	15.45600200	26.10185100	42.28708400	#	H	TIP4P
4623	1404	2	-1.1128	25.57013400	27.40001100	34.97518600	#	O	TIP4P
4624	1404	3	0.5564	26.33275400	27.93414500	34.75305500	#	H	TIP4P
4625	1404	3	0.5564	25.87275500	26.49719000	34.87737400	#	H	TIP4P
4626	1405	2	-1.1128	23.88390200	21.10290700	33.64855900	#	O	TIP4P
4627	1405	3	0.5564	23.27884900	21.81990400	33.83844900	#	H	TIP4P
4628	1405	3	0.5564	24.12432300	21.22852000	32.73059900	#	H	TIP4P
4629	1406	2	-1.1128	11.28515400	16.45082300	29.25702900	#	O	TIP4P
4630	1406	3	0.5564	11.61793500	16.64119200	28.37996000	#	H	TIP4P
4631	1406	3	0.5564	11.73061000	17.07992600	29.82450500	#	H	TIP4P
4632	1407	2	-1.1128	6.85943100	5.79001300	23.36739100	#	O	TIP4P
4633	1407	3	0.5564	6.73541100	4.96487100	23.83642300	#	H	TIP4P
4634	1407	3	0.5564	6.11170500	6.32832200	23.62693100	#	H	TIP4P
4635	1408	2	-1.1128	20.40069400	14.84977800	37.75332400	#	O	TIP4P
4636	1408	3	0.5564	20.53466300	14.43011000	36.90352200	#	H	TIP4P
4637	1408	3	0.5564	19.45671300	14.79475100	37.90199900	#	H	TIP4P
4638	1409	2	-1.1128	12.46554400	2.08989900	63.16979500	#	O	TIP4P
4639	1409	3	0.5564	11.86264200	1.49644000	62.72197000	#	H	TIP4P
4640	1409	3	0.5564	13.19863600	1.53356800	63.43305000	#	H	TIP4P
4641	1410	2	-1.1128	30.81177600	31.44967900	36.51747500	#	O	TIP4P
4642	1410	3	0.5564	31.20204500	31.36115900	35.64794300	#	H	TIP4P
4643	1410	3	0.5564	31.15445800	32.27885100	36.85105200	#	H	TIP4P
4644	1411	2	-1.1128	23.72892500	7.30395300	57.64814000	#	O	TIP4P
4645	1411	3	0.5564	22.83828800	7.59763300	57.45643900	#	H	TIP4P
4646	1411	3	0.5564	24.11213900	7.12359500	56.78974000	#	H	TIP4P
4647	1412	2	-1.1128	22.45197800	19.57864400	39.96791600	#	O	TIP4P
4648	1412	3	0.5564	23.22601200	19.02833100	39.84851200	#	H	TIP4P
4649	1412	3	0.5564	21.72907800	18.95855200	40.06348600	#	H	TIP4P
4650	1413	2	-1.1128	10.83615500	14.15308900	27.16800200	#	O	TIP4P
4651	1413	3	0.5564	10.41262400	13.29512500	27.19540000	#	H	TIP4P
4652	1413	3	0.5564	11.69025400	14.01225800	27.57655000	#	H	TIP4P
4653	1414	2	-1.1128	30.29297800	10.77329000	72.00873100	#	O	TIP4P
4654	1414	3	0.5564	29.91446400	9.89411000	72.00985600	#	H	TIP4P
4655	1414	3	0.5564	29.53678000	11.36013900	72.00695000	#	H	TIP4P
4656	1415	2	-1.1128	30.39947300	2.08211900	56.88137000	#	O	TIP4P
4657	1415	3	0.5564	29.64113500	1.49803500	56.88069100	#	H	TIP4P
4658	1415	3	0.5564	31.15500400	1.49446800	56.88975200	#	H	TIP4P
4659	1416	2	-1.1128	14.82471300	23.32018400	42.91948000	#	O	TIP4P
4660	1416	3	0.5564	14.68398100	23.86757900	43.69199900	#	H	TIP4P
4661	1416	3	0.5564	13.94865700	23.02406300	42.67235500	#	H	TIP4P
4662	1417	2	-1.1128	15.83761300	27.37932000	37.87673500	#	O	TIP4P
4663	1417	3	0.5564	16.16354700	26.98977900	38.68806500	#	H	TIP4P
4664	1417	3	0.5564	15.93286800	28.32264500	38.00824900	#	H	TIP4P
4665	1418	2	-1.1128	17.95878400	5.48669400	35.18883100	#	O	TIP4P
4666	1418	3	0.5564	17.30578800	5.68265500	34.51694800	#	H	TIP4P
4667	1418	3	0.5564	17.77028100	4.58564300	35.45113500	#	H	TIP4P
4668	1419	2	-1.1128	1.49005500	24.95735100	45.94312300	#	O	TIP4P
4669	1419	3	0.5564	1.49768800	25.75200800	45.40955600	#	H	TIP4P
4670	1419	3	0.5564	2.12520900	25.12898600	46.63835800	#	H	TIP4P
4671	1420	2	-1.1128	10.97904400	23.23649700	55.66991900	#	O	TIP4P
4672	1420	3	0.5564	11.22137900	22.96317900	56.55468000	#	H	TIP4P
4673	1420	3	0.5564	10.43801300	24.01548800	55.79911600	#	H	TIP4P
4674	1421	2	-1.1128	15.52057100	25.98690500	25.92171600	#	O	TIP4P
4675	1421	3	0.5564	15.53339700	26.48047900	25.10168500	#	H	TIP4P
4676	1421	3	0.5564	16.43611600	25.75412200	26.07605600	#	H	TIP4P
4677	1422	2	-1.1128	23.44453700	11.39422300	32.98806500	#	O	TIP4P
4678	1422	3	0.5564	24.20889100	11.27906100	32.42350200	#	H	TIP4P
4679	1422	3	0.5564	23.70497500	11.01112500	33.82570500	#	H	TIP4P
4680	1423	2	-1.1128	5.50986500	2.47543300	58.04834000	#	O	TIP4P
4681	1423	3	0.5564	4.74121500	3.01908300	58.22112000	#	H	TIP4P
4682	1423	3	0.5564	5.16853800	1.58190400	58.01182300	#	H	TIP4P
4683	1424	2	-1.1128	1.71659600	3.35732400	26.56541300	#	O	TIP4P
4684	1424	3	0.5564	1.47349700	3.46907000	27.48446000	#	H	TIP4P
4685	1424	3	0.5564	1.63708500	2.41637000	26.40884200	#	H	TIP4P
4686	1425	2	-1.1128	31.20196000	26.63014400	52.92945700	#	O	TIP4P
4687	1425	3	0.5564	31.01517100	27.54243300	52.70793900	#	H	TIP4P
4688	1425	3	0.5564	30.34008500	26.22236200	53.01382400	#	H	TIP4P
4689	1426	2	-1.1128	19.02633000	33.29740200	24.98070500	#	O	TIP4P
4690	1426	3	0.5564	19.06137200	33.30212700	25.93725100	#	H	TIP4P
4691	1426	3	0.5564	18.09317700	33.24127100	24.77501700	#	H	TIP4P
4692	1427	2	-1.1128	21.12051800	15.89658200	17.32576800	#	O	TIP4P
4693	1427	3	0.5564	21.22168800	15.73250100	16.38817800	#	H	TIP4P
4694	1427	3	0.5564	21.56835000	16.72959300	17.47331800	#	H	TIP4P
4695	1428	2	-1.1128	28.10347800	26.21905100	25.39708700	#	O	TIP4P
4696	1428	3	0.5564	28.58570700	25.68126800	26.02516000	#	H	TIP4P
4697	1428	3	0.5564	28.39271100	27.11389800	25.57547700	#	H	TIP4P
4698	1429	2	-1.1128	6.54332000	9.49512600	23.29852700	#	O	TIP4P
4699	1429	3	0.5564	7.01586500	8.95131900	22.66828500	#	H	TIP4P
4700	1429	3	0.5564	7.13472600	10.22674900	23.47515700	#	H	TIP4P
4701	1430	2	-1.1128	18.36005300	30.88657800	30.87080600	#	O	TIP4P
4702	1430	3	0.5564	17.94040200	31.73178100	31.03129800	#	H	TIP4P
4703	1430	3	0.5564	17.63280400	30.27061900	30.78173600	#	H	TIP4P
4704	1431	2	-1.1128	22.47684400	25.46002500	12.52414500	#	O	TIP4P
4705	1431	3	0.5564	22.90810400	25.44892300	11.66967300	#	H	TIP4P
4706	1431	3	0.5564	21.66912900	25.95270900	12.37892200	#	H	TIP4P
4707	1432	2	-1.1128	4.36131700	7.39898200	48.74419800	#	O	TIP4P
4708	1432	3	0.5564	4.17452500	8.07185300	49.39886200	#	H	TIP4P
4709	1432	3	0.5564	3.86553700	7.67126500	47.97199500	#	H	TIP4P
4710	1433	2	-1.1128	16.14097200	20.63970300	20.62640400	#	O	TIP4P
4711	1433	3	0.5564	15.47487400	20.08017300	20.22706500	#	H	TIP4P
4712	1433	3	0.5564	16.62834200	20.99912400	19.88510900	#	H	TIP4P
4713	1434	2	-1.1128	11.00662000	16.91937700	14.15764700	#	O	TIP4P
4714	1434	3	0.5564	10.90651400	16.15716600	13.58734500	#	H	TIP4P
4715	1434	3	0.5564	11.36203700	16.56442100	14.97245800	#	H	TIP4P
4716	1435	2	-1.1128	1.49570500	22.45354800	21.83949200	#	O	TIP4P
4717	1435	3	0.5564	1.49597800	22.93022800	22.66955700	#	H	TIP4P
4718	1435	3	0.5564	1.49805400	21.53048500	22.09283300	#	H	TIP4P
4719	1436	2	-1.1128	19.90438700	25.29407200	42.66558000	#	O	TIP4P
4720	1436	3	0.5564	20.65302800	25.85751700	42.46988100	#	H	TIP4P
4721	1436	3	0.5564	19.24891900	25.52917900	42.00883300	#	H	TIP4P
4722	1437	2	-1.1128	1.55893300	32.50502300	17.95465900	#	O	TIP4P
4723	1437	3	0.5564	1.49325000	32.26679300	17.02990800	#	H	TIP4P
4724	1437	3	0.5564	2.20000200	31.89250400	18.31532700	#	H	TIP4P
4725	1438	2	-1.1128	29.35539400	28.44349400	27.78166200	#	O	TIP4P
4726	1438	3	0.5564	30.09049700	28.86369600	28.22807600	#	H	TIP4P
4727	1438	3	0.5564	28.62820800	29.05693900	27.88710400	#	H	TIP4P
4728	1439	2	-1.1128	8.03856300	4.52974600	20.26903400	#	O	TIP4P
4729	1439	3	0.5564	8.05484000	5.33577900	19.75301300	#	H	TIP4P
4730	1439	3	0.5564	8.41888000	3.86757200	19.69187100	#	H	TIP4P
4731	1440	2	-1.1128	9.24033200	27.69497500	63.65550200	#	O	TIP4P
4732	1440	3	0.5564	9.42171900	28.52117000	63.20747100	#	H	TIP4P
4733	1440	3	0.5564	8.95475500	27.10250000	62.96005200	#	H	TIP4P
4734	1441	2	-1.1128	18.65900400	28.40779600	47.46261500	#	O	TIP4P
4735	1441	3	0.5564	17.73361300	28.64688300	47.51478900	#	H	TIP4P
4736	1441	3	0.5564	18.65770900	27.45161700	47.41845300	#	H	TIP4P
4737	1442	2	-1.1128	17.18688600	20.39760300	71.97061200	#	O	TIP4P
4738	1442	3	0.5564	17.97777300	20.93602200	71.99950000	#	H	TIP4P
4739	1442	3	0.5564	17.50824700	19.49680800	72.00968600	#	H	TIP4P
4740	1443	2	-1.1128	26.33203700	11.41437900	62.68979500	#	O	TIP4P
4741	1443	3	0.5564	25.73821400	10.74330600	62.35324300	#	H	TIP4P
4742	1443	3	0.5564	25.92471000	12.24326700	62.43827600	#	H	TIP4P
4743	1444	2	-1.1128	15.66081300	16.67016600	39.35912700	#	O	TIP4P
4744	1444	3	0.5564	16.11465300	16.18572200	40.04874700	#	H	TIP4P
4745	1444	3	0.5564	15.16090700	17.34004600	39.82558900	#	H	TIP4P
4746	1445	2	-1.1128	12.78864800	9.25533700	66.66451400	#	O	TIP4P
4747	1445	3	0.5564	12.74789400	9.40629900	67.60885500	#	H	TIP4P
4748	1445	3	0.5564	12.06463200	8.65521300	66.48594900	#	H	TIP4P
4749	1446	2	-1.1128	25.32919700	15.19836500	63.81652900	#	O	TIP4P
4750	1446	3	0.5564	24.70897400	15.73236400	64.31291500	#	H	TIP4P
4751	1446	3	0.5564	24.78104700	14.57695800	63.33734500	#	H	TIP4P
4752	1447	2	-1.1128	16.19737900	28.59542700	57.94845800	#	O	TIP4P
4753	1447	3	0.5564	15.77144300	27.73824100	57.94191400	#	H	TIP4P
4754	1447	3	0.5564	15.48366900	29.21908000	57.81464700	#	H	TIP4P
4755	1448	2	-1.1128	31.15048000	30.85963600	39.20624300	#	O	TIP4P
4756	1448	3	0.5564	31.13628400	31.74699300	39.56489000	#	H	TIP4P
4757	1448	3	0.5564	30.22816800	30.63746800	39.07891200	#	H	TIP4P
4758	1449	2	-1.1128	25.40620000	11.56040200	42.05534200	#	O	TIP4P
4759	1449	3	0.5564	25.73901600	11.73418700	41.17485100	#	H	TIP4P
4760	1449	3	0.5564	26.18864100	11.38008900	42.57640300	#	H	TIP4P
4761	1450	2	-1.1128	31.15432000	12.26877900	11.97035000	#	O	TIP4P
4762	1450	3	0.5564	30.97002900	12.86305600	12.69774500	#	H	TIP4P
4763	1450	3	0.5564	30.45296800	12.43550700	11.34063700	#	H	TIP4P
4764	1451	2	-1.1128	9.83442300	16.76516200	35.02552600	#	O	TIP4P
4765	1451	3	0.5564	8.94031300	16.45983800	34.87197600	#	H	TIP4P
4766	1451	3	0.5564	10.03525500	16.48096800	35.91722800	#	H	TIP4P
4767	1452	2	-1.1128	5.71667400	30.93670000	12.73464900	#	O	TIP4P
4768	1452	3	0.5564	4.95502600	30.74258600	12.18834900	#	H	TIP4P
4769	1452	3	0.5564	5.37758600	30.93145400	13.62976000	#	H	TIP4P
4770	1453	2	-1.1128	6.81031000	28.27212300	27.81978000	#	O	TIP4P
4771	1453	3	0.5564	6.11900800	28.77312700	28.25259400	#	H	TIP4P
4772	1453	3	0.5564	6.72383000	27.38746700	28.17493700	#	H	TIP4P
4773	1454	2	-1.1128	18.20292600	22.98627900	42.02596900	#	O	TIP4P
4774	1454	3	0.5564	17.93038500	22.68904100	41.15786600	#	H	TIP4P
4775	1454	3	0.5564	17.49292600	22.71323100	42.60698200	#	H	TIP4P
4776	1455	2	-1.1128	12.90251000	7.36347800	25.80066700	#	O	TIP4P
4777	1455	3	0.5564	12.42546900	6.63313100	25.40664000	#	H	TIP4P
4778	1455	3	0.5564	12.28048100	8.09091200	25.78840700	#	H	TIP4P
4779	1456	2	-1.1128	3.22347600	3.68080400	24.28843400	#	O	TIP4P
4780	1456	3	0.5564	2.63809500	4.43392900	24.20866200	#	H	TIP4P
4781	1456	3	0.5564	4.06956900	4.05881900	24.52814600	#	H	TIP4P
4782	1457	2	-1.1128	28.21627100	13.95438400	10.83896400	#	O	TIP4P
4783	1457	3	0.5564	28.50401700	14.34842100	11.66247500	#	H	TIP4P
4784	1457	3	0.5564	27.42534200	13.46705600	11.06955800	#	H	TIP4P
4785	1458	2	-1.1128	6.83487100	23.13325400	39.71539000	#	O	TIP4P
4786	1458	3	0.5564	7.33110200	23.85729500	40.09716300	#	H	TIP4P
4787	1458	3	0.5564	7.07803100	22.37172800	40.24187100	#	H	TIP4P
4788	1459	2	-1.1128	15.84219200	9.42575200	41.53456500	#	O	TIP4P
4789	1459	3	0.5564	15.50837000	10.12076500	40.96733300	#	H	TIP4P
4790	1459	3	0.5564	15.59406200	8.61439500	41.09143800	#	H	TIP4P
4791	1460	2	-1.1128	16.24576500	7.70557800	24.86322700	#	O	TIP4P
4792	1460	3	0.5564	16.63227400	6.83717300	24.75046700	#	H	TIP4P
4793	1460	3	0.5564	16.98960700	8.30657600	24.82161900	#	H	TIP4P
4794	1461	2	-1.1128	2.44347200	10.26221200	41.37554700	#	O	TIP4P
4795	1461	3	0.5564	2.50373200	9.70933500	40.59649200	#	H	TIP4P
4796	1461	3	0.5564	3.31088100	10.65890100	41.45598500	#	H	TIP4P
4797	1462	2	-1.1128	31.15482000	18.32213200	66.70035300	#	O	TIP4P
4798	1462	3	0.5564	31.15160900	17.57439400	66.10276700	#	H	TIP4P
4799	1462	3	0.5564	30.74481100	17.99213800	67.49987100	#	H	TIP4P
4800	1463	2	-1.1128	11.35182300	11.33178100	65.57531100	#	O	TIP4P
4801	1463	3	0.5564	11.54901000	12.26707200	65.62610400	#	H	TIP4P
4802	1463	3	0.5564	10.47066100	11.25211000	65.94060200	#	H	TIP4P
4803	1464	2	-1.1128	19.44318800	24.77564400	59.88962300	#	O	TIP4P
4804	1464	3	0.5564	19.49153100	24.23596400	60.67869900	#	H	TIP4P
4805	1464	3	0.5564	18.80536600	24.32954700	59.33247600	#	H	TIP4P
4806	1465	2	-1.1128	23.69550200	11.27275300	29.20434500	#	O	TIP4P
4807	1465	3	0.5564	24.13740000	11.33877500	28.35782300	#	H	TIP4P
4808	1465	3	0.5564	24.22573200	10.65199000	29.70408400	#	H	TIP4P
4809	1466	2	-1.1128	16.39186500	4.70400200	14.80494000	#	O	TIP4P
4810	1466	3	0.5564	17.02279100	4.81538000	15.51610800	#	H	TIP4P
4811	1466	3	0.5564	16.54941500	5.44936600	14.22542100	#	H	TIP4P
4812	1467	2	-1.1128	15.19024600	18.28666200	64.67625900	#	O	TIP4P
4813	1467	3	0.5564	16.12693400	18.43162600	64.80980200	#	H	TIP4P
4814	1467	3	0.5564	15.10126800	17.33574600	64.61243900	#	H	TIP4P
4815	1468	2	-1.1128	5.79762100	17.16910700	12.82039800	#	O	TIP4P
4816	1468	3	0.5564	6.14350600	16.80457800	12.00571200	#	H	TIP4P
4817	1468	3	0.5564	5.20081700	16.49707600	13.14968500	#	H	TIP4P
4818	1469	2	-1.1128	28.63862400	17.42834600	42.43849300	#	O	TIP4P
4819	1469	3	0.5564	28.51578100	17.39870200	41.48967200	#	H	TIP4P
4820	1469	3	0.5564	27.85656200	17.87108900	42.76802000	#	H	TIP4P
4821	1470	2	-1.1128	9.63942800	10.94923800	33.16145900	#	O	TIP4P
4822	1470	3	0.5564	10.07106400	11.70686600	33.55632900	#	H	TIP4P
4823	1470	3	0.5564	9.85605100	11.00761000	32.23092200	#	H	TIP4P
4824	1471	2	-1.1128	14.55885800	16.00450700	26.39639900	#	O	TIP4P
4825	1471	3	0.5564	13.62355600	16.07905300	26.58583200	#	H	TIP4P
4826	1471	3	0.5564	14.82886900	15.19741800	26.83449900	#	H	TIP4P
4827	1472	2	-1.1128	5.47931400	29.76216600	16.19472100	#	O	TIP4P
4828	1472	3	0.5564	5.24765600	30.44656100	16.82255100	#	H	TIP4P
4829	1472	3	0.5564	5.59506500	28.97606900	16.72846600	#	H	TIP4P
4830	1473	2	-1.1128	8.79465600	2.33435000	44.29704000	#	O	TIP4P
4831	1473	3	0.5564	9.16634700	1.45311800	44.25822300	#	H	TIP4P
4832	1473	3	0.5564	7.84764000	2.19527500	44.30412300	#	H	TIP4P
4833	1474	2	-1.1128	16.93689400	22.52721800	45.49704100	#	O	TIP4P
4834	1474	3	0.5564	16.50262600	23.35803100	45.69041100	#	H	TIP4P
4835	1474	3	0.5564	17.13111500	22.15230300	46.35608000	#	H	TIP4P
4836	1475	2	-1.1128	21.87357000	19.92865600	35.25634300	#	O	TIP4P
4837	1475	3	0.5564	21.41696400	19.62993900	36.04279700	#	H	TIP4P
4838	1475	3	0.5564	22.20739400	19.12704300	34.85359200	#	H	TIP4P
4839	1476	2	-1.1128	1.50135000	33.29295600	40.19835400	#	O	TIP4P
4840	1476	3	0.5564	2.37822200	33.30610100	39.81474600	#	H	TIP4P
4841	1476	3	0.5564	1.60218400	32.79677100	41.01067400	#	H	TIP4P
4842	1477	2	-1.1128	30.34269600	26.47498900	21.24106600	#	O	TIP4P
4843	1477	3	0.5564	31.15548500	26.03931900	21.49757600	#	H	TIP4P
4844	1477	3	0.5564	30.46337500	27.38569400	21.50992400	#	H	TIP4P
4845	1478	2	-1.1128	31.15314700	2.01950000	20.70312400	#	O	TIP4P
4846	1478	3	0.5564	31.03973800	2.96751500	20.63502100	#	H	TIP4P
4847	1478	3	0.5564	30.98725400	1.69379000	19.81846400	#	H	TIP4P
4848	1479	2	-1.1128	26.83430800	13.17834300	29.50103100	#	O	TIP4P
4849	1479	3	0.5564	27.76958300	12.97610900	29.52540300	#	H	TIP4P
4850	1479	3	0.5564	26.40281600	12.32615300	29.56281200	#	H	TIP4P
4851	1480	2	-1.1128	24.92309500	1.51702300	20.91091000	#	O	TIP4P
4852	1480	3	0.5564	24.03149100	1.49649600	21.25854900	#	H	TIP4P
4853	1480	3	0.5564	24.81084400	1.49075100	19.96067800	#	H	TIP4P
4854	1481	2	-1.1128	29.47812100	21.07003400	10.55189900	#	O	TIP4P
4855	1481	3	0.5564	28.73866100	21.15730000	9.95038900	#	H	TIP4P
4856	1481	3	0.5564	29.17863500	20.44398400	11.21114100	#	H	TIP4P
4857	1482	2	-1.1128	15.10502600	30.18224300	47.10993200	#	O	TIP4P
4858	1482	3	0.5564	14.53166000	30.82635500	47.52538600	#	H	TIP4P
4859	1482	3	0.5564	15.91140700	30.66331200	46.92404800	#	H	TIP4P
4860	1483	2	-1.1128	30.45010700	23.51460000	37.31201100	#	O	TIP4P
4861	1483	3	0.5564	31.16862000	23.47895100	36.68058300	#	H	TIP4P
4862	1483	3	0.5564	30.44979500	24.41939900	37.62437500	#	H	TIP4P
4863	1484	2	-1.1128	9.44913400	24.63337600	42.24291800	#	O	TIP4P
4864	1484	3	0.5564	9.28777900	24.42670500	43.16350700	#	H	TIP4P
4865	1484	3	0.5564	9.69748400	23.79701300	41.84915400	#	H	TIP4P
4866	1485	2	-1.1128	17.41552600	19.81482800	28.33777600	#	O	TIP4P
4867	1485	3	0.5564	17.40203700	19.77480300	27.38150800	#	H	TIP4P
4868	1485	3	0.5564	18.22779000	20.27589500	28.54724100	#	H	TIP4P
4869	1486	2	-1.1128	5.38825500	4.27460000	60.57964600	#	O	TIP4P
4870	1486	3	0.5564	6.29786800	4.29273500	60.28214400	#	H	TIP4P
4871	1486	3	0.5564	5.07423900	5.16892600	60.44620800	#	H	TIP4P
4872	1487	2	-1.1128	12.13603400	21.96719900	14.64247300	#	O	TIP4P
4873	1487	3	0.5564	11.82715600	22.35326800	15.46209300	#	H	TIP4P
4874	1487	3	0.5564	11.46177900	21.32931100	14.40857200	#	H	TIP4P
4875	1488	2	-1.1128	16.20897700	6.62322600	37.05008200	#	O	TIP4P
4876	1488	3	0.5564	15.30754600	6.82418000	36.79854300	#	H	TIP4P
4877	1488	3	0.5564	16.71579200	7.37767700	36.74979300	#	H	TIP4P
4878	1489	2	-1.1128	20.92649700	22.10846900	59.08711100	#	O	TIP4P
4879	1489	3	0.5564	20.26521200	22.19372600	58.40033200	#	H	TIP4P
4880	1489	3	0.5564	21.35842900	22.96232000	59.11169200	#	H	TIP4P
4881	1490	2	-1.1128	25.44980100	27.66651800	57.94408500	#	O	TIP4P
4882	1490	3	0.5564	24.93045700	27.78515900	57.14882600	#	H	TIP4P
4883	1490	3	0.5564	26.24176100	28.18238300	57.79271200	#	H	TIP4P
4884	1491	2	-1.1128	19.02073500	17.73145000	66.57722600	#	O	TIP4P
4885	1491	3	0.5564	18.23868600	18.28323500	66.56438900	#	H	TIP4P
4886	1491	3	0.5564	18.68255100	16.83602200	66.58570700	#	H	TIP4P
4887	1492	2	-1.1128	10.91516100	2.24152800	50.01784400	#	O	TIP4P
4888	1492	3	0.5564	10.07344700	2.69294500	49.95481500	#	H	TIP4P
4889	1492	3	0.5564	11.36544500	2.67359200	50.74365100	#	H	TIP4P
4890	1493	2	-1.1128	20.46863500	12.51011300	48.38989300	#	O	TIP4P
4891	1493	3	0.5564	19.63771700	12.84812600	48.72389200	#	H	TIP4P
4892	1493	3	0.5564	20.23225300	11.70562400	47.92821000	#	H	TIP4P
4893	1494	2	-1.1128	7.70339500	22.52616800	49.77885100	#	O	TIP4P
4894	1494	3	0.5564	7.92985000	22.40859900	50.70141700	#	H	TIP4P
4895	1494	3	0.5564	8.52943500	22.40244000	49.31132600	#	H	TIP4P
4896	1495	2	-1.1128	14.71019400	5.09559500	25.66334400	#	O	TIP4P
4897	1495	3	0.5564	14.03502300	4.41719200	25.65134100	#	H	TIP4P
4898	1495	3	0.5564	15.15577700	4.97590900	26.50201100	#	H	TIP4P
4899	1496	2	-1.1128	12.05142000	17.33815400	54.02346400	#	O	TIP4P
4900	1496	3	0.5564	11.46078100	17.29371800	53.27153100	#	H	TIP4P
4901	1496	3	0.5564	11.67500300	16.73094700	54.66052100	#	H	TIP4P
4902	1497	2	-1.1128	1.49154800	15.22442300	36.11685000	#	O	TIP4P
4903	1497	3	0.5564	1.71815000	16.14096400	36.27444100	#	H	TIP4P
4904	1497	3	0.5564	1.57136700	15.11702100	35.16905000	#	H	TIP4P
4905	1498	2	-1.1128	30.35518800	20.95601600	49.81500000	#	O	TIP4P
4906	1498	3	0.5564	31.15511600	20.43243000	49.76804700	#	H	TIP4P
4907	1498	3	0.5564	30.64824700	21.85554000	49.66938400	#	H	TIP4P
4908	1499	2	-1.1128	4.02562100	14.53505900	36.93041900	#	O	TIP4P
4909	1499	3	0.5564	4.78377600	15.02467600	37.24933400	#	H	TIP4P
4910	1499	3	0.5564	4.38829800	13.91872800	36.29415300	#	H	TIP4P
4911	1500	2	-1.1128	22.97948100	7.35364200	63.13859600	#	O	TIP4P
4912	1500	3	0.5564	23.64280100	7.98455000	63.41822600	#	H	TIP4P
4913	1500	3	0.5564	23.47210100	6.67829800	62.67226300	#	H	TIP4P
4914	1501	2	-1.1128	16.80531000	5.55019400	61.22118200	#	O	TIP4P
4915	1501	3	0.5564	15.99251000	5.89402900	61.59181100	#	H	TIP4P
4916	1501	3	0.5564	17.10503900	6.23503400	60.62336300	#	H	TIP4P
4917	1502	2	-1.1128	10.73033400	7.58678900	37.21818300	#	O	TIP4P
4918	1502	3	0.5564	11.65658700	7.80049000	37.10585100	#	H	TIP4P
4919	1502	3	0.5564	10.39785700	7.48418600	36.32646400	#	H	TIP4P
4920	1503	2	-1.1128	13.69951000	15.49438700	20.31340100	#	O	TIP4P
4921	1503	3	0.5564	13.41096100	14.58173700	20.30700100	#	H	TIP4P
4922	1503	3	0.5564	12.90987000	15.99714700	20.11356800	#	H	TIP4P
4923	1504	2	-1.1128	17.98534200	25.02188800	39.46520000	#	O	TIP4P
4924	1504	3	0.5564	17.96048400	24.27612300	38.86565900	#	H	TIP4P
4925	1504	3	0.5564	18.54736100	25.66208200	39.02871700	#	H	TIP4P
4926	1505	2	-1.1128	27.68296500	4.03895600	49.06897600	#	O	TIP4P
4927	1505	3	0.5564	27.96356100	4.20801300	48.16957700	#	H	TIP4P
4928	1505	3	0.5564	28.40140500	4.36648000	49.61008900	#	H	TIP4P
4929	1506	2	-1.1128	10.98764500	27.43327400	48.72424400	#	O	TIP4P
4930	1506	3	0.5564	10.26537000	27.20529400	49.30954500	#	H	TIP4P
4931	1506	3	0.5564	11.00730600	26.72534500	48.08028700	#	H	TIP4P
4932	1507	2	-1.1128	25.04902000	24.38341400	45.52879100	#	O	TIP4P
4933	1507	3	0.5564	25.29659900	25.11376200	44.96175500	#	H	TIP4P
4934	1507	3	0.5564	25.87942600	24.05497000	45.87344000	#	H	TIP4P
4935	1508	2	-1.1128	11.38582800	20.55673400	41.34641300	#	O	TIP4P
4936	1508	3	0.5564	12.12888000	20.98394800	41.77255000	#	H	TIP4P
4937	1508	3	0.5564	10.72331300	21.24377900	41.27379000	#	H	TIP4P
4938	1509	2	-1.1128	19.76138900	8.70165500	49.29522200	#	O	TIP4P
4939	1509	3	0.5564	20.68423400	8.88574000	49.12000000	#	H	TIP4P
4940	1509	3	0.5564	19.36368500	9.56372300	49.41729500	#	H	TIP4P
4941	1510	2	-1.1128	22.94800900	2.39656200	69.00094300	#	O	TIP4P
4942	1510	3	0.5564	23.75134700	2.91385600	69.05827600	#	H	TIP4P
4943	1510	3	0.5564	23.25033000	1.49199500	68.91975200	#	H	TIP4P
4944	1511	2	-1.1128	25.70128200	30.39457900	42.79900100	#	O	TIP4P
4945	1511	3	0.5564	25.34448800	29.51341700	42.91073500	#	H	TIP4P
4946	1511	3	0.5564	26.63216000	30.25618900	42.62422900	#	H	TIP4P
4947	1512	2	-1.1128	6.47557300	28.53267200	36.30186500	#	O	TIP4P
4948	1512	3	0.5564	6.58303600	27.67403000	35.89269800	#	H	TIP4P
4949	1512	3	0.5564	5.53182000	28.69136500	36.28240300	#	H	TIP4P
4950	1513	2	-1.1128	12.87361700	18.56197800	35.09259700	#	O	TIP4P
4951	1513	3	0.5564	11.92756300	18.54479600	34.94797000	#	H	TIP4P
4952	1513	3	0.5564	13.23972200	18.09483400	34.34161400	#	H	TIP4P
4953	1514	2	-1.1128	26.11747200	4.90194400	38.48927100	#	O	TIP4P
4954	1514	3	0.5564	26.08360100	5.26803200	39.37304900	#	H	TIP4P
4955	1514	3	0.5564	25.37964500	5.30687000	38.03333600	#	H	TIP4P
4956	1515	2	-1.1128	22.19476800	30.13905500	50.03201500	#	O	TIP4P
4957	1515	3	0.5564	21.77896200	30.97395400	49.81688200	#	H	TIP4P
4958	1515	3	0.5564	21.46544100	29.52880300	50.14113500	#	H	TIP4P
4959	1516	2	-1.1128	5.99858100	13.46374700	13.60899100	#	O	TIP4P
4960	1516	3	0.5564	6.68047500	12.84327300	13.35157300	#	H	TIP4P
4961	1516	3	0.5564	5.23872400	13.21778000	13.08140300	#	H	TIP4P
4962	1517	2	-1.1128	13.26993900	2.11938800	20.49176200	#	O	TIP4P
4963	1517	3	0.5564	13.95438500	2.78817600	20.46965300	#	H	TIP4P
4964	1517	3	0.5564	13.57157900	1.48882400	21.14569900	#	H	TIP4P
4965	1518	2	-1.1128	12.43912100	25.63834800	56.75864900	#	O	TIP4P
4966	1518	3	0.5564	13.02477500	25.02644900	56.31275600	#	H	TIP4P
4967	1518	3	0.5564	12.47015200	25.37354900	57.67796900	#	H	TIP4P
4968	1519	2	-1.1128	3.25246000	30.56598400	48.34900900	#	O	TIP4P
4969	1519	3	0.5564	4.09666300	30.13492100	48.48219100	#	H	TIP4P
4970	1519	3	0.5564	2.64249700	29.84975700	48.17238900	#	H	TIP4P
4971	1520	2	-1.1128	15.33786100	33.25635900	40.15461600	#	O	TIP4P
4972	1520	3	0.5564	15.05394400	33.31893400	41.06659600	#	H	TIP4P
4973	1520	3	0.5564	15.03341800	32.39564600	39.86700800	#	H	TIP4P
4974	1521	2	-1.1128	18.54592300	33.30475100	53.49840400	#	O	TIP4P
4975	1521	3	0.5564	19.21473900	32.83400400	53.99571000	#	H	TIP4P
4976	1521	3	0.5564	18.87940100	33.31878800	52.60128300	#	H	TIP4P
4977	1522	2	-1.1128	16.45783500	5.71225400	65.27103900	#	O	TIP4P
4978	1522	3	0.5564	15.90477000	6.38654700	64.87647600	#	H	TIP4P
4979	1522	3	0.5564	17.34735900	6.05798500	65.19722400	#	H	TIP4P
4980	1523	2	-1.1128	27.79964300	20.78892500	35.33772700	#	O	TIP4P
4981	1523	3	0.5564	28.09396100	21.29045100	36.09804300	#	H	TIP4P
4982	1523	3	0.5564	28.39126300	20.03728200	35.30238500	#	H	TIP4P
4983	1524	2	-1.1128	17.12012600	31.66948800	41.82225300	#	O	TIP4P
4984	1524	3	0.5564	17.21611800	30.76193000	42.11096800	#	H	TIP4P
4985	1524	3	0.5564	17.67671300	31.73460200	41.04623600	#	H	TIP4P
4986	1525	2	-1.1128	2.61784300	1.46033800	34.86537000	#	O	TIP4P
4987	1525	3	0.5564	1.83969500	1.99951100	34.72391200	#	H	TIP4P
4988	1525	3	0.5564	3.34985300	2.02664200	34.62104900	#	H	TIP4P
4989	1526	2	-1.1128	21.79486600	13.03580100	13.38186700	#	O	TIP4P
4990	1526	3	0.5564	22.26080400	12.39019900	13.91321600	#	H	TIP4P
4991	1526	3	0.5564	21.13838400	13.40434600	13.97299900	#	H	TIP4P
4992	1527	2	-1.1128	9.21824000	20.65982800	34.10986300	#	O	TIP4P
4993	1527	3	0.5564	10.15080600	20.44875100	34.06514800	#	H	TIP4P
4994	1527	3	0.5564	9.16371700	21.37232700	34.74673200	#	H	TIP4P
4995	1528	2	-1.1128	9.23592100	7.91643000	33.02543900	#	O	TIP4P
4996	1528	3	0.5564	9.79326400	7.14130600	32.95627500	#	H	TIP4P
4997	1528	3	0.5564	9.46120800	8.29911700	33.87339400	#	H	TIP4P
4998	1529	2	-1.1128	24.31975300	29.19957800	36.63619600	#	O	TIP4P
4999	1529	3	0.5564	23.74649000	29.95924500	36.53369100	#	H	TIP4P
5000	1529	3	0.5564	23.74048300	28.50119100	36.94104200	#	H	TIP4P
5001	1530	2	-1.1128	13.66675600	10.81415000	63.72279800	#	O	TIP4P
5002	1530	3	0.5564	12.82063400	10.91951300	63.28782000	#	H	TIP4P
5003	1530	3	0.5564	14.24369300	10.46422000	63.04388400	#	H	TIP4P
5004	1531	2	-1.1128	25.34436100	33.19752400	59.75226100	#	O	TIP4P
5005	1531	3	0.5564	25.05382700	32.40129800	59.30746200	#	H	TIP4P
5006	1531	3	0.5564	24.73140800	33.30325000	60.47981900	#	H	TIP4P
5007	1532	2	-1.1128	5.49464100	26.39231500	58.70060000	#	O	TIP4P
5008	1532	3	0.5564	6.06487500	26.05337600	59.39066100	#	H	TIP4P
5009	1532	3	0.5564	5.31607600	27.29641800	58.95933600	#	H	TIP4P
5010	1533	2	-1.1128	22.13353600	10.07168700	38.92076100	#	O	TIP4P
5011	1533	3	0.5564	22.84729400	10.56659700	38.51846100	#	H	TIP4P
5012	1533	3	0.5564	21.44163100	10.71836000	39.05973000	#	H	TIP4P
5013	1534	2	-1.1128	15.44586600	16.81238900	18.64747400	#	O	TIP4P
5014	1534	3	0.5564	15.15179500	17.15332200	17.80277400	#	H	TIP4P
5015	1534	3	0.5564	15.24942500	17.51222000	19.27027300	#	H	TIP4P
5016	1535	2	-1.1128	21.02600800	15.88267600	64.30613600	#	O	TIP4P
5017	1535	3	0.5564	20.51559400	15.50827800	65.02414400	#	H	TIP4P
5018	1535	3	0.5564	21.92848800	15.62406200	64.49289900	#	H	TIP4P
5019	1536	2	-1.1128	26.45778400	33.30299500	20.92099200	#	O	TIP4P
5020	1536	3	0.5564	25.53127500	33.06723000	20.87380300	#	H	TIP4P
5021	1536	3	0.5564	26.92122800	32.46736200	20.86470200	#	H	TIP4P
5022	1537	2	-1.1128	19.17087100	17.77854500	48.41230300	#	O	TIP4P
5023	1537	3	0.5564	18.25175800	17.77163900	48.14506600	#	H	TIP4P
5024	1537	3	0.5564	19.65632400	17.91522400	47.59873900	#	H	TIP4P
5025	1538	2	-1.1128	5.25462500	16.64330500	56.29311200	#	O	TIP4P
5026	1538	3	0.5564	4.46013100	17.00158900	56.68889400	#	H	TIP4P
5027	1538	3	0.5564	5.90377800	17.34079900	56.38440200	#	H	TIP4P
5028	1539	2	-1.1128	18.94203200	15.45449600	23.47084800	#	O	TIP4P
5029	1539	3	0.5564	19.37606500	15.47204000	22.61788900	#	H	TIP4P
5030	1539	3	0.5564	18.00759100	15.48240600	23.26524200	#	H	TIP4P
5031	1540	2	-1.1128	9.64588900	12.56196000	40.11450500	#	O	TIP4P
5032	1540	3	0.5564	9.16943700	12.88855100	39.35124700	#	H	TIP4P
5033	1540	3	0.5564	10.31200100	13.22797800	40.28464500	#	H	TIP4P
5034	1541	2	-1.1128	13.98403100	27.20578600	20.95651300	#	O	TIP4P
5035	1541	3	0.5564	13.24979400	26.68458400	20.63174300	#	H	TIP4P
5036	1541	3	0.5564	14.75892200	26.79144600	20.57691200	#	H	TIP4P
5037	1542	2	-1.1128	28.30777000	31.88123800	15.90460500	#	O	TIP4P
5038	1542	3	0.5564	27.36273900	31.75594200	15.81829200	#	H	TIP4P
5039	1542	3	0.5564	28.67921800	31.01046300	15.76315200	#	H	TIP4P
5040	1543	2	-1.1128	14.89330400	21.63136200	22.86749400	#	O	TIP4P
5041	1543	3	0.5564	14.88327000	21.08381700	23.65255800	#	H	TIP4P
5042	1543	3	0.5564	13.97164900	21.71945000	22.62454400	#	H	TIP4P
5043	1544	2	-1.1128	16.67440000	2.02086000	48.22025000	#	O	TIP4P
5044	1544	3	0.5564	17.27046700	1.49337400	47.68856000	#	H	TIP4P
5045	1544	3	0.5564	15.87776900	1.49380800	48.28209600	#	H	TIP4P
5046	1545	2	-1.1128	26.46265500	33.30763900	46.06710300	#	O	TIP4P
5047	1545	3	0.5564	27.24726000	33.36409300	46.61248300	#	H	TIP4P
5048	1545	3	0.5564	25.73947100	33.25379700	46.69187300	#	H	TIP4P
5049	1546	2	-1.1128	2.42132600	26.64083500	52.42583300	#	O	TIP4P
5050	1546	3	0.5564	2.83196200	26.22749700	51.66638600	#	H	TIP4P
5051	1546	3	0.5564	1.48386500	26.49190000	52.30248100	#	H	TIP4P
5052	1547	2	-1.1128	17.68542300	14.70844500	53.72386900	#	O	TIP4P
5053	1547	3	0.5564	16.86465800	14.28282200	53.97170200	#	H	TIP4P
5054	1547	3	0.5564	18.21342000	14.00744900	53.34169800	#	H	TIP4P
5055	1548	2	-1.1128	28.79658000	16.33925400	55.36884900	#	O	TIP4P
5056	1548	3	0.5564	28.20123600	15.63324800	55.11715000	#	H	TIP4P
5057	1548	3	0.5564	28.93213500	16.21540600	56.30827300	#	H	TIP4P
5058	1549	2	-1.1128	4.27320900	5.65743100	46.14542500	#	O	TIP4P
5059	1549	3	0.5564	4.47583600	4.90084700	45.59519400	#	H	TIP4P
5060	1549	3	0.5564	3.67815800	6.18739600	45.61506500	#	H	TIP4P
5061	1550	2	-1.1128	25.92467000	29.95013900	21.65785400	#	O	TIP4P
5062	1550	3	0.5564	25.38252200	29.27191000	21.25497400	#	H	TIP4P
5063	1550	3	0.5564	25.29694600	30.57464500	22.02142900	#	H	TIP4P
5064	1551	2	-1.1128	21.79116900	30.18965900	26.58781000	#	O	TIP4P
5065	1551	3	0.5564	21.83563600	30.66886900	27.41522300	#	H	TIP4P
5066	1551	3	0.5564	20.95353600	29.72772400	26.62273400	#	H	TIP4P
5067	1552	2	-1.1128	20.27277100	10.83363200	15.00211600	#	O	TIP4P
5068	1552	3	0.5564	19.49322300	10.29000300	14.88807600	#	H	TIP4P
5069	1552	3	0.5564	20.21278000	11.15337000	15.90233800	#	H	TIP4P
5070	1553	2	-1.1128	31.13787100	11.61114200	58.90895300	#	O	TIP4P
5071	1553	3	0.5564	30.66174300	11.12216000	58.23781300	#	H	TIP4P
5072	1553	3	0.5564	30.88938400	11.19203600	59.73286800	#	H	TIP4P
5073	1554	2	-1.1128	1.60306600	18.25450200	49.92568900	#	O	TIP4P
5074	1554	3	0.5564	2.52157000	18.09089100	49.71164600	#	H	TIP4P
5075	1554	3	0.5564	1.49956900	17.91468200	50.81453300	#	H	TIP4P
5076	1555	2	-1.1128	18.95401700	16.92087300	43.75939800	#	O	TIP4P
5077	1555	3	0.5564	19.26863800	17.67609500	44.25627400	#	H	TIP4P
5078	1555	3	0.5564	19.23123400	17.09322600	42.85957800	#	H	TIP4P
5079	1556	2	-1.1128	8.66841000	32.71598500	23.61936300	#	O	TIP4P
5080	1556	3	0.5564	9.14717900	33.15630100	24.32159700	#	H	TIP4P
5081	1556	3	0.5564	8.74842500	33.30447700	22.86869200	#	H	TIP4P
5082	1557	2	-1.1128	13.77703700	18.62611100	67.09828800	#	O	TIP4P
5083	1557	3	0.5564	13.39989000	17.83465700	66.71411100	#	H	TIP4P
5084	1557	3	0.5564	13.63784900	18.52558600	68.03996400	#	H	TIP4P
5085	1558	2	-1.1128	28.47864400	2.66043100	15.20588200	#	O	TIP4P
5086	1558	3	0.5564	28.69121900	1.96621000	15.82966300	#	H	TIP4P
5087	1558	3	0.5564	28.66308600	3.47225900	15.67826800	#	H	TIP4P
5088	1559	2	-1.1128	8.23714200	25.51986600	55.12613900	#	O	TIP4P
5089	1559	3	0.5564	8.69159400	26.13700100	55.69959300	#	H	TIP4P
5090	1559	3	0.5564	8.72273400	25.55582200	54.30204000	#	H	TIP4P
5091	1560	2	-1.1128	18.66019300	19.16818100	63.90830000	#	O	TIP4P
5092	1560	3	0.5564	18.89982000	18.24196500	63.87772200	#	H	TIP4P
5093	1560	3	0.5564	19.36010100	19.58056000	64.41456500	#	H	TIP4P
5094	1561	2	-1.1128	1.50248700	11.74603200	71.29930800	#	O	TIP4P
5095	1561	3	0.5564	1.48943700	11.19353500	70.51776600	#	H	TIP4P
5096	1561	3	0.5564	1.76250200	11.15551200	72.00635000	#	H	TIP4P
5097	1562	2	-1.1128	15.94749900	13.17005400	45.96984900	#	O	TIP4P
5098	1562	3	0.5564	16.44246900	13.52448600	46.70850600	#	H	TIP4P
5099	1562	3	0.5564	15.77804900	12.25898200	46.20956800	#	H	TIP4P
5100	1563	2	-1.1128	5.52999100	27.80243600	48.22542000	#	O	TIP4P
5101	1563	3	0.5564	5.45724800	27.04529800	48.80652400	#	H	TIP4P
5102	1563	3	0.5564	6.19009700	28.35926600	48.63825400	#	H	TIP4P
5103	1564	2	-1.1128	23.82793000	1.48979300	24.16009100	#	O	TIP4P
5104	1564	3	0.5564	24.69740700	1.80128800	23.90866900	#	H	TIP4P
5105	1564	3	0.5564	23.26617400	2.26136200	24.08699100	#	H	TIP4P
5106	1565	2	-1.1128	9.45797600	33.30756900	59.12844200	#	O	TIP4P
5107	1565	3	0.5564	8.56028800	33.26870100	58.79847600	#	H	TIP4P
5108	1565	3	0.5564	9.38591100	33.05890800	60.04996600	#	H	TIP4P
5109	1566	2	-1.1128	21.01809500	27.37286100	51.78663000	#	O	TIP4P
5110	1566	3	0.5564	21.66602000	26.67402600	51.69688600	#	H	TIP4P
5111	1566	3	0.5564	20.74060700	27.32680400	52.70156800	#	H	TIP4P
5112	1567	2	-1.1128	7.94355300	32.91394200	20.26844900	#	O	TIP4P
5113	1567	3	0.5564	7.09483000	33.33110800	20.12055100	#	H	TIP4P
5114	1567	3	0.5564	8.51639600	33.29223800	19.60138500	#	H	TIP4P
5115	1568	2	-1.1128	31.16770700	24.23785100	63.78239100	#	O	TIP4P
5116	1568	3	0.5564	31.10298600	24.13826400	62.83258800	#	H	TIP4P
5117	1568	3	0.5564	31.15756600	25.18420600	63.92571200	#	H	TIP4P
5118	1569	2	-1.1128	29.39687400	8.39842300	32.89384300	#	O	TIP4P
5119	1569	3	0.5564	29.26396300	7.45570500	32.99308200	#	H	TIP4P
5120	1569	3	0.5564	30.34645900	8.51235000	32.93309700	#	H	TIP4P
5121	1570	2	-1.1128	24.92358900	20.09722200	62.19955800	#	O	TIP4P
5122	1570	3	0.5564	24.14150700	19.54562400	62.21740200	#	H	TIP4P
5123	1570	3	0.5564	24.67889700	20.84288400	61.65152000	#	H	TIP4P
5124	1571	2	-1.1128	9.67899700	5.45073500	54.44750100	#	O	TIP4P
5125	1571	3	0.5564	8.99106500	5.41167500	53.78307900	#	H	TIP4P
5126	1571	3	0.5564	10.41260000	4.97186800	54.06182700	#	H	TIP4P
5127	1572	2	-1.1128	20.17919100	17.28528900	35.31752200	#	O	TIP4P
5128	1572	3	0.5564	20.11376600	17.14375300	36.26193600	#	H	TIP4P
5129	1572	3	0.5564	20.65810200	16.52261700	34.99316400	#	H	TIP4P
5130	1573	2	-1.1128	5.03865900	25.12704000	70.07800800	#	O	TIP4P
5131	1573	3	0.5564	4.34063400	24.47657600	70.00126000	#	H	TIP4P
5132	1573	3	0.5564	4.60564600	25.90284700	70.43417600	#	H	TIP4P
5133	1574	2	-1.1128	27.29115400	21.02063900	60.81277100	#	O	TIP4P
5134	1574	3	0.5564	27.82368500	20.69624100	61.53900000	#	H	TIP4P
5135	1574	3	0.5564	27.81500000	20.84092200	60.03205400	#	H	TIP4P
5136	1575	2	-1.1128	17.00505400	30.79364700	38.55116200	#	O	TIP4P
5137	1575	3	0.5564	16.88373600	31.57183000	38.00715300	#	H	TIP4P
5138	1575	3	0.5564	17.88711800	30.48802000	38.33953100	#	H	TIP4P
5139	1576	2	-1.1128	26.48052000	9.02724700	45.95365800	#	O	TIP4P
5140	1576	3	0.5564	25.71833600	8.73888200	46.45580600	#	H	TIP4P
5141	1576	3	0.5564	26.95596900	8.22066200	45.75465900	#	H	TIP4P
5142	1577	2	-1.1128	7.73787700	1.83206600	54.51877500	#	O	TIP4P
5143	1577	3	0.5564	7.61265700	2.71853800	54.18007100	#	H	TIP4P
5144	1577	3	0.5564	6.85733800	1.45744800	54.54206500	#	H	TIP4P
5145	1578	2	-1.1128	25.15372400	16.46962000	24.85090100	#	O	TIP4P
5146	1578	3	0.5564	24.85350500	17.34443900	24.60433900	#	H	TIP4P
5147	1578	3	0.5564	24.60157400	16.22704700	25.59421900	#	H	TIP4P
5148	1579	2	-1.1128	5.51456900	30.92091600	34.43543300	#	O	TIP4P
5149	1579	3	0.5564	4.75693300	30.59635600	33.94873000	#	H	TIP4P
5150	1579	3	0.5564	6.22792500	30.33183800	34.18978600	#	H	TIP4P
5151	1580	2	-1.1128	11.57724700	23.59359200	30.73599100	#	O	TIP4P
5152	1580	3	0.5564	11.01430100	23.96314500	30.05573100	#	H	TIP4P
5153	1580	3	0.5564	12.40187700	23.40421700	30.28838300	#	H	TIP4P
5154	1581	2	-1.1128	18.11997300	27.72413000	40.79660300	#	O	TIP4P
5155	1581	3	0.5564	17.94749600	28.15541800	41.63354600	#	H	TIP4P
5156	1581	3	0.5564	18.08968600	28.43083700	40.15171600	#	H	TIP4P
5157	1582	2	-1.1128	9.95392500	12.35337400	42.88208900	#	O	TIP4P
5158	1582	3	0.5564	9.02803300	12.14298200	42.76088700	#	H	TIP4P
5159	1582	3	0.5564	9.95459600	13.25141400	43.21338300	#	H	TIP4P
5160	1583	2	-1.1128	4.20876400	3.63163700	48.01959300	#	O	TIP4P
5161	1583	3	0.5564	3.73731600	3.55040800	48.84867100	#	H	TIP4P
5162	1583	3	0.5564	4.94540300	3.02600400	48.10206600	#	H	TIP4P
5163	1584	2	-1.1128	23.10706400	15.80851000	61.35016000	#	O	TIP4P
5164	1584	3	0.5564	22.15547000	15.88060500	61.42434500	#	H	TIP4P
5165	1584	3	0.5564	23.44502700	16.50928900	61.90776300	#	H	TIP4P
5166	1585	2	-1.1128	18.23531900	1.84838100	53.71163700	#	O	TIP4P
5167	1585	3	0.5564	18.09593800	2.71139500	54.10152300	#	H	TIP4P
5168	1585	3	0.5564	17.35362200	1.50319100	53.57132900	#	H	TIP4P
5169	1586	2	-1.1128	25.53228700	14.79106200	60.54916600	#	O	TIP4P
5170	1586	3	0.5564	26.08047500	14.03066700	60.35546200	#	H	TIP4P
5171	1586	3	0.5564	26.15444500	15.49438800	60.73486000	#	H	TIP4P
5172	1587	2	-1.1128	28.06523900	30.25996500	69.83193300	#	O	TIP4P
5173	1587	3	0.5564	28.36899900	29.42362100	69.47910100	#	H	TIP4P
5174	1587	3	0.5564	28.79382700	30.86243100	69.68218000	#	H	TIP4P
5175	1588	2	-1.1128	21.91902200	20.91643400	61.35714200	#	O	TIP4P
5176	1588	3	0.5564	21.53851700	20.15334400	60.92223800	#	H	TIP4P
5177	1588	3	0.5564	21.64037900	20.83649600	62.26939100	#	H	TIP4P
5178	1589	2	-1.1128	18.40882300	27.56305400	36.71769700	#	O	TIP4P
5179	1589	3	0.5564	18.37360500	28.38641000	36.23079200	#	H	TIP4P
5180	1589	3	0.5564	17.94097400	26.93714000	36.16490400	#	H	TIP4P
5181	1590	2	-1.1128	12.44366900	27.60909700	63.00514200	#	O	TIP4P
5182	1590	3	0.5564	12.17086300	28.52640300	62.98621000	#	H	TIP4P
5183	1590	3	0.5564	11.71720300	27.13428900	62.60136400	#	H	TIP4P
5184	1591	2	-1.1128	2.21488600	5.15288500	58.02244000	#	O	TIP4P
5185	1591	3	0.5564	3.05440600	5.28046100	58.46421200	#	H	TIP4P
5186	1591	3	0.5564	1.95702500	6.03009100	57.73915800	#	H	TIP4P
5187	1592	2	-1.1128	6.65811900	22.48771800	16.18846600	#	O	TIP4P
5188	1592	3	0.5564	7.37888100	21.96319700	15.83973900	#	H	TIP4P
5189	1592	3	0.5564	5.98046200	21.84839500	16.40819200	#	H	TIP4P
5190	1593	2	-1.1128	12.13493400	20.24595900	44.66839000	#	O	TIP4P
5191	1593	3	0.5564	11.21665200	19.99943700	44.55785800	#	H	TIP4P
5192	1593	3	0.5564	12.50466000	19.55444500	45.21733700	#	H	TIP4P
5193	1594	2	-1.1128	20.29794300	11.08812900	71.77715100	#	O	TIP4P
5194	1594	3	0.5564	19.76519000	10.32529000	72.00183300	#	H	TIP4P
5195	1594	3	0.5564	19.66358700	11.75443600	71.51284400	#	H	TIP4P
5196	1595	2	-1.1128	12.94788100	28.05356800	46.65490800	#	O	TIP4P
5197	1595	3	0.5564	12.66011100	28.86337900	47.07636500	#	H	TIP4P
5198	1595	3	0.5564	13.45700800	28.34455300	45.89837100	#	H	TIP4P
5199	1596	2	-1.1128	10.34312000	18.21375600	31.91022500	#	O	TIP4P
5200	1596	3	0.5564	11.21005400	18.20540100	32.31592000	#	H	TIP4P
5201	1596	3	0.5564	9.73393400	18.13287500	32.64410700	#	H	TIP4P
5202	1597	2	-1.1128	3.40485700	30.75487300	45.58087100	#	O	TIP4P
5203	1597	3	0.5564	4.26378700	31.17732900	45.58245100	#	H	TIP4P
5204	1597	3	0.5564	3.59847400	29.81746300	45.57840200	#	H	TIP4P
5205	1598	2	-1.1128	23.85295000	29.07035000	63.31679700	#	O	TIP4P
5206	1598	3	0.5564	24.72694100	29.45949500	63.28616000	#	H	TIP4P
5207	1598	3	0.5564	23.25916500	29.81853700	63.37899200	#	H	TIP4P
5208	1599	2	-1.1128	14.43665100	4.78499000	39.15731200	#	O	TIP4P
5209	1599	3	0.5564	15.01079200	4.56656200	38.42322600	#	H	TIP4P
5210	1599	3	0.5564	14.82662100	5.57014200	39.54161900	#	H	TIP4P
5211	1600	2	-1.1128	26.22860200	26.15811900	48.76764800	#	O	TIP4P
5212	1600	3	0.5564	25.30108000	26.34688900	48.62517200	#	H	TIP4P
5213	1600	3	0.5564	26.35619100	26.27835600	49.70865500	#	H	TIP4P
5214	1601	2	-1.1128	17.45710000	25.64878200	44.50538500	#	O	TIP4P
5215	1601	3	0.5564	17.36811500	25.95285500	45.40863000	#	H	TIP4P
5216	1601	3	0.5564	17.58333200	26.44825100	43.99436100	#	H	TIP4P
5217	1602	2	-1.1128	24.08280000	19.81064700	42.78642400	#	O	TIP4P
5218	1602	3	0.5564	24.68419900	19.43356300	42.14427200	#	H	TIP4P
5219	1602	3	0.5564	24.15240300	19.23452100	43.54765000	#	H	TIP4P
5220	1603	2	-1.1128	30.87584700	7.85093800	60.05229700	#	O	TIP4P
5221	1603	3	0.5564	30.08007200	7.53398200	60.47951300	#	H	TIP4P
5222	1603	3	0.5564	31.15662200	8.59283100	60.58801300	#	H	TIP4P
5223	1604	2	-1.1128	6.69891200	1.72241600	19.65002700	#	O	TIP4P
5224	1604	3	0.5564	5.78326800	1.49282600	19.49154500	#	H	TIP4P
5225	1604	3	0.5564	7.14689800	1.49960500	18.83400300	#	H	TIP4P
5226	1605	2	-1.1128	4.12244300	2.41672200	55.61053400	#	O	TIP4P
5227	1605	3	0.5564	4.53835100	2.89053900	54.89029100	#	H	TIP4P
5228	1605	3	0.5564	4.24216200	1.49280800	55.39080400	#	H	TIP4P
5229	1606	2	-1.1128	21.50429600	30.01004600	60.68109600	#	O	TIP4P
5230	1606	3	0.5564	21.66123900	29.23388000	61.21883800	#	H	TIP4P
5231	1606	3	0.5564	21.68675500	30.74688500	61.26419800	#	H	TIP4P
5232	1607	2	-1.1128	20.90866100	27.72309100	35.40295500	#	O	TIP4P
5233	1607	3	0.5564	21.72953800	27.23083600	35.41172100	#	H	TIP4P
5234	1607	3	0.5564	20.44344700	27.40022300	34.63122700	#	H	TIP4P
5235	1608	2	-1.1128	5.17468500	32.92513600	27.14811600	#	O	TIP4P
5236	1608	3	0.5564	5.03096000	32.18263200	27.73485400	#	H	TIP4P
5237	1608	3	0.5564	4.30485200	33.30495500	27.02418400	#	H	TIP4P
5238	1609	2	-1.1128	4.68144600	21.54224000	37.25446000	#	O	TIP4P
5239	1609	3	0.5564	4.99968400	22.23579000	37.83234100	#	H	TIP4P
5240	1609	3	0.5564	5.41950600	21.35590200	36.67413500	#	H	TIP4P
5241	1610	2	-1.1128	17.77228900	6.92570900	45.44945100	#	O	TIP4P
5242	1610	3	0.5564	18.62821500	7.07978800	45.84930400	#	H	TIP4P
5243	1610	3	0.5564	17.39000600	6.21665500	45.96649400	#	H	TIP4P
5244	1611	2	-1.1128	13.71190200	14.33835000	39.94563900	#	O	TIP4P
5245	1611	3	0.5564	12.94160100	13.81213900	39.73123500	#	H	TIP4P
5246	1611	3	0.5564	13.39058900	15.23991400	39.95875100	#	H	TIP4P
5247	1612	2	-1.1128	30.98818800	4.26432100	16.91453700	#	O	TIP4P
5248	1612	3	0.5564	31.15081200	3.32393900	16.84060500	#	H	TIP4P
5249	1612	3	0.5564	31.14998700	4.60572500	16.03505100	#	H	TIP4P
5250	1613	2	-1.1128	12.96118400	21.77357200	11.95646300	#	O	TIP4P
5251	1613	3	0.5564	13.86101500	21.51505300	11.75720700	#	H	TIP4P
5252	1613	3	0.5564	12.41994400	21.17524000	11.44140000	#	H	TIP4P
5253	1614	2	-1.1128	8.47720000	33.31231800	63.65028200	#	O	TIP4P
5254	1614	3	0.5564	8.72018900	32.52249900	64.13337100	#	H	TIP4P
5255	1614	3	0.5564	8.57969100	33.07153300	62.72954900	#	H	TIP4P
5256	1615	2	-1.1128	16.42434300	11.40167900	64.43206700	#	O	TIP4P
5257	1615	3	0.5564	15.96830200	12.23056600	64.28645200	#	H	TIP4P
5258	1615	3	0.5564	17.28842100	11.53127200	64.04116400	#	H	TIP4P
5259	1616	2	-1.1128	7.13678800	31.07494200	54.20398400	#	O	TIP4P
5260	1616	3	0.5564	6.54290200	31.19167900	53.46243000	#	H	TIP4P
5261	1616	3	0.5564	6.58238100	30.72871700	54.90326300	#	H	TIP4P
5262	1617	2	-1.1128	16.74515600	5.80246700	31.82785900	#	O	TIP4P
5263	1617	3	0.5564	15.98945100	5.23191200	31.68782900	#	H	TIP4P
5264	1617	3	0.5564	16.37375100	6.68276000	31.88594100	#	H	TIP4P
5265	1618	2	-1.1128	1.49746600	25.05905300	14.40894700	#	O	TIP4P
5266	1618	3	0.5564	2.33720400	25.02229200	14.86689900	#	H	TIP4P
5267	1618	3	0.5564	1.52843100	24.32796900	13.79186600	#	H	TIP4P
5268	1619	2	-1.1128	15.48785300	32.72261800	26.72132000	#	O	TIP4P
5269	1619	3	0.5564	16.24345400	33.30372500	26.80857400	#	H	TIP4P
5270	1619	3	0.5564	14.73426100	33.31195800	26.68956600	#	H	TIP4P
5271	1620	2	-1.1128	27.03450300	15.78674300	45.37693600	#	O	TIP4P
5272	1620	3	0.5564	27.22831800	16.71923300	45.28137600	#	H	TIP4P
5273	1620	3	0.5564	27.88859000	15.37694000	45.51415400	#	H	TIP4P
5274	1621	2	-1.1128	15.50038800	30.60830200	29.07884000	#	O	TIP4P
5275	1621	3	0.5564	15.73200900	30.40015400	28.17371000	#	H	TIP4P
5276	1621	3	0.5564	15.74570500	31.52753400	29.18401800	#	H	TIP4P
5277	1622	2	-1.1128	11.86275100	22.16936600	27.88739300	#	O	TIP4P
5278	1622	3	0.5564	12.02557000	23.06307600	27.58572600	#	H	TIP4P
5279	1622	3	0.5564	12.73322500	21.81499400	28.06885300	#	H	TIP4P
5280	1623	2	-1.1128	27.68652500	33.31065900	43.29583800	#	O	TIP4P
5281	1623	3	0.5564	26.81307900	33.15825900	42.93514800	#	H	TIP4P
5282	1623	3	0.5564	27.97516100	32.44937000	43.59766900	#	H	TIP4P
5283	1624	2	-1.1128	22.30448100	30.28468800	57.13773400	#	O	TIP4P
5284	1624	3	0.5564	21.43328200	29.89344700	57.07312500	#	H	TIP4P
5285	1624	3	0.5564	22.73532100	30.04809600	56.31637300	#	H	TIP4P
5286	1625	2	-1.1128	12.64426600	20.40924100	51.99268700	#	O	TIP4P
5287	1625	3	0.5564	12.19479300	20.78742000	52.74845600	#	H	TIP4P
5288	1625	3	0.5564	11.97676400	19.87936900	51.55690200	#	H	TIP4P
5289	1626	2	-1.1128	29.89536300	26.85624900	65.70689100	#	O	TIP4P
5290	1626	3	0.5564	29.13701200	26.51420100	65.23345700	#	H	TIP4P
5291	1626	3	0.5564	29.58809600	27.67737700	66.09103400	#	H	TIP4P
5292	1627	2	-1.1128	20.93036900	16.34008100	40.32121800	#	O	TIP4P
5293	1627	3	0.5564	21.56619300	15.62469000	40.33445700	#	H	TIP4P
5294	1627	3	0.5564	20.07833800	15.90425400	40.33934500	#	H	TIP4P
5295	1628	2	-1.1128	31.12897800	9.17157900	37.43495400	#	O	TIP4P
5296	1628	3	0.5564	31.15139200	8.94025700	36.50639700	#	H	TIP4P
5297	1628	3	0.5564	30.22669700	8.99860600	37.70365500	#	H	TIP4P
5298	1629	2	-1.1128	13.99876600	2.78264200	58.13016300	#	O	TIP4P
5299	1629	3	0.5564	14.85193900	3.19977700	58.01046900	#	H	TIP4P
5300	1629	3	0.5564	13.37697700	3.51004800	58.15228700	#	H	TIP4P
5301	1630	2	-1.1128	13.94717200	15.24302000	14.76614000	#	O	TIP4P
5302	1630	3	0.5564	13.61131700	15.41477700	13.88640600	#	H	TIP4P
5303	1630	3	0.5564	14.06855800	16.11124700	15.15042800	#	H	TIP4P
5304	1631	2	-1.1128	31.15536500	30.28752500	52.78294800	#	O	TIP4P
5305	1631	3	0.5564	30.31927400	30.72546600	52.62360400	#	H	TIP4P
5306	1631	3	0.5564	31.15077100	30.09540400	53.72065800	#	H	TIP4P
5307	1632	2	-1.1128	22.52969600	24.60299200	46.67359500	#	O	TIP4P
5308	1632	3	0.5564	22.93823000	23.97839100	47.27293200	#	H	TIP4P
5309	1632	3	0.5564	22.91845800	25.44665100	46.90453700	#	H	TIP4P
5310	1633	2	-1.1128	25.44185200	12.79524000	71.21010700	#	O	TIP4P
5311	1633	3	0.5564	26.37678600	12.67004200	71.04745300	#	H	TIP4P
5312	1633	3	0.5564	25.40570200	13.32815400	72.00441600	#	H	TIP4P
5313	1634	2	-1.1128	28.43503300	8.95057900	69.51721600	#	O	TIP4P
5314	1634	3	0.5564	28.74113200	8.05520800	69.37283400	#	H	TIP4P
5315	1634	3	0.5564	28.43757700	9.34839700	68.64660400	#	H	TIP4P
5316	1635	2	-1.1128	5.60919900	23.43984300	56.63565200	#	O	TIP4P
5317	1635	3	0.5564	4.80018000	22.94359200	56.51133000	#	H	TIP4P
5318	1635	3	0.5564	5.31793000	24.30692100	56.91773300	#	H	TIP4P
5319	1636	2	-1.1128	18.95849300	20.73936700	61.67115700	#	O	TIP4P
5320	1636	3	0.5564	18.37714400	20.14176300	61.20090600	#	H	TIP4P
5321	1636	3	0.5564	19.11960300	21.45286800	61.05375100	#	H	TIP4P
5322	1637	2	-1.1128	10.08543600	30.63049100	58.96312400	#	O	TIP4P
5323	1637	3	0.5564	10.11696200	29.69797100	59.17676800	#	H	TIP4P
5324	1637	3	0.5564	9.42926700	30.69568400	58.26927800	#	H	TIP4P
5325	1638	2	-1.1128	3.50314900	30.25653100	56.40336700	#	O	TIP4P
5326	1638	3	0.5564	3.95498300	29.79054400	57.10688300	#	H	TIP4P
5327	1638	3	0.5564	4.01377700	30.05917200	55.61816600	#	H	TIP4P
5328	1639	2	-1.1128	18.13884400	17.63715900	20.84726700	#	O	TIP4P
5329	1639	3	0.5564	17.60174200	18.31722500	20.44074100	#	H	TIP4P
5330	1639	3	0.5564	18.87144300	18.11234400	21.23935100	#	H	TIP4P
5331	1640	2	-1.1128	2.21666300	16.99936800	13.23218000	#	O	TIP4P
5332	1640	3	0.5564	2.57635400	17.31031200	12.40141600	#	H	TIP4P
5333	1640	3	0.5564	1.49929100	17.60332000	13.42414600	#	H	TIP4P
5334	1641	2	-1.1128	1.50292700	31.27473600	51.32278700	#	O	TIP4P
5335	1641	3	0.5564	1.49377100	31.30255800	50.36603500	#	H	TIP4P
5336	1641	3	0.5564	1.51489600	32.19394800	51.58950200	#	H	TIP4P
5337	1642	2	-1.1128	7.85225200	8.68758600	16.49401400	#	O	TIP4P
5338	1642	3	0.5564	7.96308200	9.63118500	16.37753200	#	H	TIP4P
5339	1642	3	0.5564	8.58813700	8.42602500	17.04745000	#	H	TIP4P
5340	1643	2	-1.1128	24.76858300	32.73186200	49.42582300	#	O	TIP4P
5341	1643	3	0.5564	25.51997100	33.32482800	49.43208700	#	H	TIP4P
5342	1643	3	0.5564	24.00752200	33.30810900	49.49623200	#	H	TIP4P
5343	1644	2	-1.1128	8.85592200	21.82240900	37.51996800	#	O	TIP4P
5344	1644	3	0.5564	9.05498400	22.28794200	38.33230100	#	H	TIP4P
5345	1644	3	0.5564	8.05740000	22.23806300	37.19465800	#	H	TIP4P
5346	1645	2	-1.1128	28.44999300	16.08976700	48.36401300	#	O	TIP4P
5347	1645	3	0.5564	28.43824900	16.84341700	47.77400800	#	H	TIP4P
5348	1645	3	0.5564	27.56852800	16.06258500	48.73618400	#	H	TIP4P
5349	1646	2	-1.1128	6.20044700	1.67143500	61.29179900	#	O	TIP4P
5350	1646	3	0.5564	6.51667300	1.48619400	60.40753700	#	H	TIP4P
5351	1646	3	0.5564	5.26090800	1.49255700	61.25306000	#	H	TIP4P
5352	1647	2	-1.1128	1.69817900	19.61167200	30.66499000	#	O	TIP4P
5353	1647	3	0.5564	2.06287100	20.06740100	29.90634400	#	H	TIP4P
5354	1647	3	0.5564	1.49018300	20.30908700	31.28674600	#	H	TIP4P
5355	1648	2	-1.1128	10.75125100	2.08275400	37.27908000	#	O	TIP4P
5356	1648	3	0.5564	10.84021400	1.49903700	36.52569300	#	H	TIP4P
5357	1648	3	0.5564	10.56322300	1.49904700	38.01403800	#	H	TIP4P
5358	1649	2	-1.1128	2.20414700	33.30325800	21.22825500	#	O	TIP4P
5359	1649	3	0.5564	3.00392900	33.30638100	20.70235400	#	H	TIP4P
5360	1649	3	0.5564	1.49452500	33.30135500	20.58586500	#	H	TIP4P
5361	1650	2	-1.1128	12.19456700	7.03156100	34.29470300	#	O	TIP4P
5362	1650	3	0.5564	13.02817200	7.09133000	34.76135300	#	H	TIP4P
5363	1650	3	0.5564	11.89411900	6.13676200	34.45375400	#	H	TIP4P
5364	1651	2	-1.1128	7.10778700	5.49184900	30.38870100	#	O	TIP4P
5365	1651	3	0.5564	7.07465300	6.44305400	30.49040000	#	H	TIP4P
5366	1651	3	0.5564	6.33220400	5.17391700	30.85089300	#	H	TIP4P
5367	1652	2	-1.1128	5.79576000	26.80177400	67.33076800	#	O	TIP4P
5368	1652	3	0.5564	6.17126800	27.63408400	67.61796900	#	H	TIP4P
5369	1652	3	0.5564	4.98684500	26.71660500	67.83538100	#	H	TIP4P
5370	1653	2	-1.1128	18.61069300	17.90170900	39.14956700	#	O	TIP4P
5371	1653	3	0.5564	18.27142400	17.15983400	38.64881700	#	H	TIP4P
5372	1653	3	0.5564	19.47051600	18.07641600	38.76692800	#	H	TIP4P
5373	1654	2	-1.1128	15.34734000	20.52010500	43.00536200	#	O	TIP4P
5374	1654	3	0.5564	15.40230700	20.76621900	42.08197700	#	H	TIP4P
5375	1654	3	0.5564	14.42277200	20.31501200	43.14443600	#	H	TIP4P
5376	1655	2	-1.1128	3.76798400	25.84840900	19.98555200	#	O	TIP4P
5377	1655	3	0.5564	4.66989700	25.52949300	19.95273200	#	H	TIP4P
5378	1655	3	0.5564	3.23825600	25.09844800	19.71504000	#	H	TIP4P
5379	1656	2	-1.1128	1.56573800	1.64870000	58.70517700	#	O	TIP4P
5380	1656	3	0.5564	1.48489900	2.60172600	58.74310500	#	H	TIP4P
5381	1656	3	0.5564	2.50930400	1.48771600	58.70475200	#	H	TIP4P
5382	1657	2	-1.1128	6.78902500	7.27530500	35.82103900	#	O	TIP4P
5383	1657	3	0.5564	7.73561700	7.19183400	35.70601800	#	H	TIP4P
5384	1657	3	0.5564	6.48690100	6.38117500	35.98067500	#	H	TIP4P
5385	1658	2	-1.1128	28.22172600	11.35468800	24.40208200	#	O	TIP4P
5386	1658	3	0.5564	28.28226900	10.44310700	24.68771400	#	H	TIP4P
5387	1658	3	0.5564	28.97861100	11.78243900	24.80256400	#	H	TIP4P
5388	1659	2	-1.1128	21.17489900	16.13717600	26.53248600	#	O	TIP4P
5389	1659	3	0.5564	20.58412500	15.46633600	26.19015400	#	H	TIP4P
5390	1659	3	0.5564	21.84847900	16.23020900	25.85878900	#	H	TIP4P
5391	1660	2	-1.1128	29.11295600	32.69317000	18.40557900	#	O	TIP4P
5392	1660	3	0.5564	29.17603100	33.16336500	19.23694500	#	H	TIP4P
5393	1660	3	0.5564	30.01806200	32.61736400	18.10347200	#	H	TIP4P
5394	1661	2	-1.1128	4.98777500	11.68674200	15.44809800	#	O	TIP4P
5395	1661	3	0.5564	4.12760700	12.10663100	15.45412900	#	H	TIP4P
5396	1661	3	0.5564	4.87333200	10.91314100	14.89612300	#	H	TIP4P
5397	1662	2	-1.1128	7.25194200	15.82733800	14.85457100	#	O	TIP4P
5398	1662	3	0.5564	7.23860900	15.13037500	15.51054000	#	H	TIP4P
5399	1662	3	0.5564	7.90552800	16.44789700	15.17700300	#	H	TIP4P
5400	1663	2	-1.1128	7.69400500	15.26184200	41.45976200	#	O	TIP4P
5401	1663	3	0.5564	8.15399300	14.42327000	41.49769400	#	H	TIP4P
5402	1663	3	0.5564	7.27275400	15.34341100	42.31540500	#	H	TIP4P
5403	1664	2	-1.1128	2.77784300	3.54686300	52.76475300	#	O	TIP4P
5404	1664	3	0.5564	3.43122900	4.24635300	52.77046800	#	H	TIP4P
5405	1664	3	0.5564	1.94040000	3.99990100	52.86312700	#	H	TIP4P
5406	1665	2	-1.1128	13.11955900	14.18793700	17.24279500	#	O	TIP4P
5407	1665	3	0.5564	13.42295900	15.02544800	17.59316000	#	H	TIP4P
5408	1665	3	0.5564	12.39141500	13.93924100	17.81216900	#	H	TIP4P
5409	1666	2	-1.1128	2.44595100	33.30176800	43.65755100	#	O	TIP4P
5410	1666	3	0.5564	1.49422700	33.22457200	43.72457700	#	H	TIP4P
5411	1666	3	0.5564	2.75341700	33.27354100	44.56358700	#	H	TIP4P
5412	1667	2	-1.1128	21.86322600	3.46140800	36.97855700	#	O	TIP4P
5413	1667	3	0.5564	20.94456000	3.65773600	36.79487100	#	H	TIP4P
5414	1667	3	0.5564	21.84467200	2.60595000	37.40760200	#	H	TIP4P
5415	1668	2	-1.1128	25.09995300	31.10791800	65.64955300	#	O	TIP4P
5416	1668	3	0.5564	25.11009000	32.01824400	65.94524800	#	H	TIP4P
5417	1668	3	0.5564	26.00474100	30.92858700	65.39375600	#	H	TIP4P
5418	1669	2	-1.1128	19.08500300	15.48357000	14.42172700	#	O	TIP4P
5419	1669	3	0.5564	19.08616800	16.43178200	14.55258300	#	H	TIP4P
5420	1669	3	0.5564	18.16885000	15.22768700	14.52859000	#	H	TIP4P
5421	1670	2	-1.1128	30.67525300	1.49403400	32.56142000	#	O	TIP4P
5422	1670	3	0.5564	31.15496600	2.08158800	33.14527500	#	H	TIP4P
5423	1670	3	0.5564	29.75339000	1.69293900	32.72523900	#	H	TIP4P
5424	1671	2	-1.1128	11.27926300	2.59561800	42.92081500	#	O	TIP4P
5425	1671	3	0.5564	11.16131100	3.41310600	43.40458400	#	H	TIP4P
5426	1671	3	0.5564	11.75374700	2.02520200	43.52556400	#	H	TIP4P
5427	1672	2	-1.1128	19.22021200	29.26213000	44.91036600	#	O	TIP4P
5428	1672	3	0.5564	18.99116500	28.83846900	44.08315400	#	H	TIP4P
5429	1672	3	0.5564	18.48545600	29.84833200	45.09128500	#	H	TIP4P
5430	1673	2	-1.1128	30.64878400	10.54697200	16.20460300	#	O	TIP4P
5431	1673	3	0.5564	31.15282800	9.73325300	16.21044900	#	H	TIP4P
5432	1673	3	0.5564	30.02113000	10.44562600	16.92015200	#	H	TIP4P
5433	1674	2	-1.1128	14.89896800	21.18092600	29.81033800	#	O	TIP4P
5434	1674	3	0.5564	14.84510000	20.45550300	29.18817100	#	H	TIP4P
5435	1674	3	0.5564	15.80965700	21.17718800	30.10506600	#	H	TIP4P
5436	1675	2	-1.1128	27.70190200	16.63369900	32.87810400	#	O	TIP4P
5437	1675	3	0.5564	28.45361800	16.04388700	32.82085600	#	H	TIP4P
5438	1675	3	0.5564	28.08633400	17.50951800	32.91531700	#	H	TIP4P
5439	1676	2	-1.1128	28.43780600	3.57756100	42.34119000	#	O	TIP4P
5440	1676	3	0.5564	28.09703900	3.70849200	41.45633600	#	H	TIP4P
5441	1676	3	0.5564	27.69312400	3.75928800	42.91447400	#	H	TIP4P
5442	1677	2	-1.1128	5.45879600	21.67523200	31.11275400	#	O	TIP4P
5443	1677	3	0.5564	4.62117700	21.55588400	30.66511400	#	H	TIP4P
5444	1677	3	0.5564	6.03127700	22.06356400	30.45116800	#	H	TIP4P
5445	1678	2	-1.1128	16.92481400	25.63371900	48.53718800	#	O	TIP4P
5446	1678	3	0.5564	17.05770000	24.85332200	47.99908500	#	H	TIP4P
5447	1678	3	0.5564	16.15905200	25.42796300	49.07338200	#	H	TIP4P
5448	1679	2	-1.1128	25.86055000	4.04371000	46.00570800	#	O	TIP4P
5449	1679	3	0.5564	25.71550100	4.09972400	45.06122200	#	H	TIP4P
5450	1679	3	0.5564	24.99728700	4.19522000	46.39048600	#	H	TIP4P
5451	1680	2	-1.1128	16.47615700	30.46202500	49.60744900	#	O	TIP4P
5452	1680	3	0.5564	16.20993500	31.38117200	49.63041100	#	H	TIP4P
5453	1680	3	0.5564	17.43290100	30.48948500	49.59660600	#	H	TIP4P
5454	1681	2	-1.1128	8.70357000	14.82792300	71.98696900	#	O	TIP4P
5455	1681	3	0.5564	9.27405700	14.05931600	71.99140500	#	H	TIP4P
5456	1681	3	0.5564	7.81695200	14.46892200	72.02242600	#	H	TIP4P
5457	1682	2	-1.1128	23.22564500	8.62653400	28.13636600	#	O	TIP4P
5458	1682	3	0.5564	23.39486900	7.91086000	27.52366400	#	H	TIP4P
5459	1682	3	0.5564	22.57885800	9.17482600	27.69221100	#	H	TIP4P
5460	1683	2	-1.1128	30.28683800	1.97021900	40.73105800	#	O	TIP4P
5461	1683	3	0.5564	31.07967200	1.46299300	40.90532600	#	H	TIP4P
5462	1683	3	0.5564	29.57468500	1.42462200	41.06481500	#	H	TIP4P
5463	1684	2	-1.1128	14.34542900	6.35066900	47.42750100	#	O	TIP4P
5464	1684	3	0.5564	14.30400000	6.18656700	46.48538300	#	H	TIP4P
5465	1684	3	0.5564	15.23770300	6.10756400	47.67443800	#	H	TIP4P
5466	1685	2	-1.1128	24.20853000	21.20102200	48.86909900	#	O	TIP4P
5467	1685	3	0.5564	23.49188800	21.83462700	48.90375200	#	H	TIP4P
5468	1685	3	0.5564	23.92104000	20.54821000	48.23080600	#	H	TIP4P
5469	1686	2	-1.1128	20.11394200	27.53084500	71.94806900	#	O	TIP4P
5470	1686	3	0.5564	19.49146000	27.06853600	71.38680400	#	H	TIP4P
5471	1686	3	0.5564	20.87574100	26.95270500	71.98867100	#	H	TIP4P
5472	1687	2	-1.1128	9.82154600	27.34414000	42.51749800	#	O	TIP4P
5473	1687	3	0.5564	9.63988900	28.08522000	41.93954300	#	H	TIP4P
5474	1687	3	0.5564	9.57235700	27.65253500	43.38872100	#	H	TIP4P
5475	1688	2	-1.1128	4.52212900	8.80061100	64.34100800	#	O	TIP4P
5476	1688	3	0.5564	4.44382700	9.30037900	63.52840000	#	H	TIP4P
5477	1688	3	0.5564	3.61943100	8.67571700	64.63386900	#	H	TIP4P
5478	1689	2	-1.1128	29.58803000	18.66969000	60.95470100	#	O	TIP4P
5479	1689	3	0.5564	28.95002000	18.35264500	60.31543800	#	H	TIP4P
5480	1689	3	0.5564	30.07813300	19.34721700	60.48888000	#	H	TIP4P
5481	1690	2	-1.1128	4.83562700	7.55675800	14.77809800	#	O	TIP4P
5482	1690	3	0.5564	4.19410900	7.92469700	15.38580500	#	H	TIP4P
5483	1690	3	0.5564	5.49571700	8.24316000	14.68132300	#	H	TIP4P
5484	1691	2	-1.1128	30.96198100	21.38283200	22.27947300	#	O	TIP4P
5485	1691	3	0.5564	31.15352500	22.13694600	21.72192900	#	H	TIP4P
5486	1691	3	0.5564	31.15059800	20.62306300	21.72864900	#	H	TIP4P
5487	1692	2	-1.1128	13.64200500	2.17334400	24.11276600	#	O	TIP4P
5488	1692	3	0.5564	14.11397600	1.49114000	24.59033600	#	H	TIP4P
5489	1692	3	0.5564	14.30701000	2.58255500	23.55910100	#	H	TIP4P
5490	1693	2	-1.1128	21.50671700	32.82761900	51.95661400	#	O	TIP4P
5491	1693	3	0.5564	21.78425900	33.30214700	52.74021200	#	H	TIP4P
5492	1693	3	0.5564	21.87280800	33.33064700	51.22917200	#	H	TIP4P
5493	1694	2	-1.1128	22.55523900	7.63186500	47.53201800	#	O	TIP4P
5494	1694	3	0.5564	23.07426100	8.43433000	47.47818300	#	H	TIP4P
5495	1694	3	0.5564	21.84924500	7.75972200	46.89841300	#	H	TIP4P
5496	1695	2	-1.1128	27.43488800	26.31018200	46.30139300	#	O	TIP4P
5497	1695	3	0.5564	28.04024700	26.96634600	46.64667800	#	H	TIP4P
5498	1695	3	0.5564	27.92734800	25.87048100	45.60830000	#	H	TIP4P
5499	1696	2	-1.1128	21.29146500	11.63163400	51.71112100	#	O	TIP4P
5500	1696	3	0.5564	21.86245200	12.13944900	52.28760200	#	H	TIP4P
5501	1696	3	0.5564	20.95137800	12.27156800	51.08577700	#	H	TIP4P
5502	1697	2	-1.1128	7.80730800	6.77586800	40.91026400	#	O	TIP4P
5503	1697	3	0.5564	7.84692400	7.70777800	40.69530800	#	H	TIP4P
5504	1697	3	0.5564	8.72315000	6.50720100	40.98294800	#	H	TIP4P
5505	1698	2	-1.1128	3.25490200	30.88425400	64.52031900	#	O	TIP4P
5506	1698	3	0.5564	3.49703700	31.67082800	64.03154100	#	H	TIP4P
5507	1698	3	0.5564	4.08509800	30.43468500	64.67809200	#	H	TIP4P
5508	1699	2	-1.1128	2.86269700	1.48399300	28.78327900	#	O	TIP4P
5509	1699	3	0.5564	2.06472900	1.50090400	29.31166600	#	H	TIP4P
5510	1699	3	0.5564	3.57443900	1.48661000	29.42331500	#	H	TIP4P
5511	1700	2	-1.1128	21.17096300	10.29052200	65.55571600	#	O	TIP4P
5512	1700	3	0.5564	21.05653600	11.20707400	65.30457700	#	H	TIP4P
5513	1700	3	0.5564	22.11899900	10.15839200	65.55623600	#	H	TIP4P
5514	1701	2	-1.1128	4.00547100	6.87152200	26.53774800	#	O	TIP4P
5515	1701	3	0.5564	4.74394800	6.93992300	25.93260000	#	H	TIP4P
5516	1701	3	0.5564	3.45781200	6.17762000	26.17059500	#	H	TIP4P
5517	1702	2	-1.1128	1.64072800	1.72476600	50.53529300	#	O	TIP4P
5518	1702	3	0.5564	1.50011100	1.49486900	51.45377300	#	H	TIP4P
5519	1702	3	0.5564	1.49156400	2.66956900	50.49883800	#	H	TIP4P
5520	1703	2	-1.1128	22.60473700	30.36342400	45.04880900	#	O	TIP4P
5521	1703	3	0.5564	21.91846700	29.76460800	44.75438600	#	H	TIP4P
5522	1703	3	0.5564	22.15121500	31.19283200	45.19924600	#	H	TIP4P
5523	1704	2	-1.1128	7.21240300	31.28519800	38.45046300	#	O	TIP4P
5524	1704	3	0.5564	6.74890200	30.87106700	37.72252500	#	H	TIP4P
5525	1704	3	0.5564	6.90059400	32.19018800	38.44971400	#	H	TIP4P
5526	1705	2	-1.1128	27.21510800	26.64898100	28.53780500	#	O	TIP4P
5527	1705	3	0.5564	26.71204700	26.74866700	27.72958300	#	H	TIP4P
5528	1705	3	0.5564	27.29347900	25.70240800	28.65649900	#	H	TIP4P
5529	1706	2	-1.1128	26.44824500	23.89162200	24.80817300	#	O	TIP4P
5530	1706	3	0.5564	27.35745900	23.63357500	24.65660500	#	H	TIP4P
5531	1706	3	0.5564	26.01676600	23.08916600	25.10163700	#	H	TIP4P
5532	1707	2	-1.1128	3.45946400	14.61693500	32.93777400	#	O	TIP4P
5533	1707	3	0.5564	3.67199200	13.88945200	33.52243800	#	H	TIP4P
5534	1707	3	0.5564	4.24448900	14.73163200	32.40222700	#	H	TIP4P
5535	1708	2	-1.1128	14.10160200	28.30517000	18.35385300	#	O	TIP4P
5536	1708	3	0.5564	13.63403600	28.96379300	18.86749800	#	H	TIP4P
5537	1708	3	0.5564	13.41107800	27.75805800	17.97958600	#	H	TIP4P
5538	1709	2	-1.1128	28.43171900	23.27939600	27.35545900	#	O	TIP4P
5539	1709	3	0.5564	27.47755300	23.25039300	27.42586700	#	H	TIP4P
5540	1709	3	0.5564	28.73534500	23.39624200	28.25567500	#	H	TIP4P
5541	1710	2	-1.1128	23.73648000	30.26883500	19.29053600	#	O	TIP4P
5542	1710	3	0.5564	22.83977700	30.54834800	19.10606400	#	H	TIP4P
5543	1710	3	0.5564	24.19432600	31.07436800	19.53079400	#	H	TIP4P
5544	1711	2	-1.1128	31.13281600	14.66930400	54.25731600	#	O	TIP4P
5545	1711	3	0.5564	31.18413600	14.99217300	55.15695700	#	H	TIP4P
5546	1711	3	0.5564	30.83464400	15.42319600	53.74842300	#	H	TIP4P
5547	1712	2	-1.1128	18.64599800	32.41426100	22.15715300	#	O	TIP4P
5548	1712	3	0.5564	18.21068500	31.84991600	21.51821000	#	H	TIP4P
5549	1712	3	0.5564	18.40790400	33.30317400	21.89376200	#	H	TIP4P
5550	1713	2	-1.1128	15.35351600	17.36945200	36.71768500	#	O	TIP4P
5551	1713	3	0.5564	14.60998000	16.86667500	36.38511500	#	H	TIP4P
5552	1713	3	0.5564	15.02969100	18.26849800	36.77322600	#	H	TIP4P
5553	1714	2	-1.1128	16.37306700	14.64224400	37.64357200	#	O	TIP4P
5554	1714	3	0.5564	15.42053100	14.54979400	37.62458600	#	H	TIP4P
5555	1714	3	0.5564	16.70147700	13.74314600	37.64433800	#	H	TIP4P
5556	1715	2	-1.1128	19.42386900	8.28129200	38.12916200	#	O	TIP4P
5557	1715	3	0.5564	20.19818400	8.13454900	38.67242600	#	H	TIP4P
5558	1715	3	0.5564	19.48931800	9.19770100	37.86056800	#	H	TIP4P
5559	1716	2	-1.1128	7.14229500	9.89527900	57.36283800	#	O	TIP4P
5560	1716	3	0.5564	6.86335200	9.22962300	57.99158600	#	H	TIP4P
5561	1716	3	0.5564	7.77551500	9.44613200	56.80289900	#	H	TIP4P
5562	1717	2	-1.1128	31.15927700	27.28817800	38.25251800	#	O	TIP4P
5563	1717	3	0.5564	31.08120100	27.98905600	38.89974800	#	H	TIP4P
5564	1717	3	0.5564	30.26403600	27.14364800	37.94611200	#	H	TIP4P
5565	1718	2	-1.1128	24.47460100	27.04165000	32.27685200	#	O	TIP4P
5566	1718	3	0.5564	25.17320200	27.69598500	32.27092800	#	H	TIP4P
5567	1718	3	0.5564	24.93290500	26.20137800	32.28827300	#	H	TIP4P
5568	1719	2	-1.1128	19.68963200	20.65235000	10.13555800	#	O	TIP4P
5569	1719	3	0.5564	19.37390100	21.55231900	10.05430700	#	H	TIP4P
5570	1719	3	0.5564	19.17320500	20.15843000	9.49870800	#	H	TIP4P
5571	1720	2	-1.1128	21.84875800	17.73358400	13.70344500	#	O	TIP4P
5572	1720	3	0.5564	21.06235100	18.06579500	13.27051100	#	H	TIP4P
5573	1720	3	0.5564	21.70067200	16.79099200	13.77974200	#	H	TIP4P
5574	1721	2	-1.1128	28.79561000	10.48559100	45.67934200	#	O	TIP4P
5575	1721	3	0.5564	28.23604500	11.13834300	46.10009600	#	H	TIP4P
5576	1721	3	0.5564	29.05277400	9.89678500	46.38885200	#	H	TIP4P
5577	1722	2	-1.1128	11.75843600	32.78410900	56.65516800	#	O	TIP4P
5578	1722	3	0.5564	10.98895700	33.32111500	56.84426800	#	H	TIP4P
5579	1722	3	0.5564	11.55456700	31.93002600	57.03623300	#	H	TIP4P
5580	1723	2	-1.1128	3.16594700	19.60672800	63.74000900	#	O	TIP4P
5581	1723	3	0.5564	2.38076900	20.09039400	63.48350400	#	H	TIP4P
5582	1723	3	0.5564	3.80635900	19.80983500	63.05820900	#	H	TIP4P
5583	1724	2	-1.1128	1.67366600	15.06219800	50.08855900	#	O	TIP4P
5584	1724	3	0.5564	2.52566600	15.38379500	50.38335200	#	H	TIP4P
5585	1724	3	0.5564	1.47988400	15.57846900	49.30616300	#	H	TIP4P
5586	1725	2	-1.1128	26.89537600	7.71299700	23.88511300	#	O	TIP4P
5587	1725	3	0.5564	26.39209700	8.50259100	24.08381600	#	H	TIP4P
5588	1725	3	0.5564	26.47514500	7.35047600	23.10523100	#	H	TIP4P
5589	1726	2	-1.1128	15.58419900	9.73334100	72.00376600	#	O	TIP4P
5590	1726	3	0.5564	14.85583200	9.24473500	71.62038900	#	H	TIP4P
5591	1726	3	0.5564	16.32487700	9.12812800	71.96709200	#	H	TIP4P
5592	1727	2	-1.1128	30.66504100	4.88771000	40.30431300	#	O	TIP4P
5593	1727	3	0.5564	30.71663800	4.63843100	41.22704300	#	H	TIP4P
5594	1727	3	0.5564	31.17107000	5.69812100	40.24600100	#	H	TIP4P
5595	1728	2	-1.1128	1.64691500	28.75185000	43.70573600	#	O	TIP4P
5596	1728	3	0.5564	1.48556700	29.68793700	43.82380800	#	H	TIP4P
5597	1728	3	0.5564	1.48903500	28.37031300	44.56929600	#	H	TIP4P
5598	1729	2	-1.1128	18.69334200	25.03421200	23.81007600	#	O	TIP4P
5599	1729	3	0.5564	18.16976200	24.95305100	23.01288800	#	H	TIP4P
5600	1729	3	0.5564	18.42960600	25.87409200	24.18594300	#	H	TIP4P
5601	1730	2	-1.1128	28.59005800	26.00309000	10.56184000	#	O	TIP4P
5602	1730	3	0.5564	28.90289200	25.42853900	11.26059500	#	H	TIP4P
5603	1730	3	0.5564	27.65935400	25.79535900	10.47896100	#	H	TIP4P
5604	1731	2	-1.1128	1.48699500	9.89918000	23.04791200	#	O	TIP4P
5605	1731	3	0.5564	1.49865700	9.39381500	22.23507600	#	H	TIP4P
5606	1731	3	0.5564	1.50081700	10.81279600	22.76269800	#	H	TIP4P
5607	1732	2	-1.1128	6.49146000	27.30132500	44.26390200	#	O	TIP4P
5608	1732	3	0.5564	7.25233900	26.84505000	44.62321900	#	H	TIP4P
5609	1732	3	0.5564	6.86288100	27.98798000	43.71002300	#	H	TIP4P
5610	1733	2	-1.1128	20.95546600	26.28151200	45.16993900	#	O	TIP4P
5611	1733	3	0.5564	21.46100900	27.09313600	45.21380200	#	H	TIP4P
5612	1733	3	0.5564	20.04234700	26.56466900	45.21755400	#	H	TIP4P
5613	1734	2	-1.1128	24.26633800	16.20765300	19.08323200	#	O	TIP4P
5614	1734	3	0.5564	24.11773200	15.96934800	18.16815800	#	H	TIP4P
5615	1734	3	0.5564	23.44331000	15.99504300	19.52329300	#	H	TIP4P
5616	1735	2	-1.1128	13.50865600	3.50873300	49.23506100	#	O	TIP4P
5617	1735	3	0.5564	14.12717100	3.70844100	48.53236100	#	H	TIP4P
5618	1735	3	0.5564	13.91055200	2.78049200	49.70874600	#	H	TIP4P
5619	1736	2	-1.1128	4.81969700	33.30640700	68.63869500	#	O	TIP4P
5620	1736	3	0.5564	5.72847600	33.27833000	68.93796800	#	H	TIP4P
5621	1736	3	0.5564	4.57966500	32.38823900	68.51386300	#	H	TIP4P
5622	1737	2	-1.1128	17.64633600	30.51986400	63.00992700	#	O	TIP4P
5623	1737	3	0.5564	16.73171700	30.79804600	63.05807300	#	H	TIP4P
5624	1737	3	0.5564	18.14382500	31.33665400	62.97006300	#	H	TIP4P
5625	1738	2	-1.1128	31.13466400	18.55722800	55.25648300	#	O	TIP4P
5626	1738	3	0.5564	30.30420700	18.56149800	54.78050500	#	H	TIP4P
5627	1738	3	0.5564	31.17077500	17.69392400	55.66834900	#	H	TIP4P
5628	1739	2	-1.1128	9.04179800	9.72318300	37.59312800	#	O	TIP4P
5629	1739	3	0.5564	9.16854900	10.34322300	38.31126200	#	H	TIP4P
5630	1739	3	0.5564	9.24673100	10.22474200	36.80403100	#	H	TIP4P
5631	1740	2	-1.1128	8.36790200	15.31152600	26.81219900	#	O	TIP4P
5632	1740	3	0.5564	7.47661800	15.20924800	27.14594100	#	H	TIP4P
5633	1740	3	0.5564	8.39595500	14.76056500	26.02996800	#	H	TIP4P
5634	1741	2	-1.1128	26.84843500	25.54468600	58.99451900	#	O	TIP4P
5635	1741	3	0.5564	26.80104600	24.61892300	58.75587800	#	H	TIP4P
5636	1741	3	0.5564	26.93469000	25.54266600	59.94782200	#	H	TIP4P
5637	1742	2	-1.1128	25.43488600	9.45344200	57.47464000	#	O	TIP4P
5638	1742	3	0.5564	25.47873200	10.40944800	57.45558900	#	H	TIP4P
5639	1742	3	0.5564	25.95174100	9.17439000	56.71884700	#	H	TIP4P
5640	1743	2	-1.1128	1.47127500	7.13694200	40.59365200	#	O	TIP4P
5641	1743	3	0.5564	1.49991200	6.89987400	39.66671600	#	H	TIP4P
5642	1743	3	0.5564	1.47664400	6.29882300	41.05599300	#	H	TIP4P
5643	1744	2	-1.1128	6.79878300	32.42880200	60.73556000	#	O	TIP4P
5644	1744	3	0.5564	5.98846200	31.92892100	60.63691300	#	H	TIP4P
5645	1744	3	0.5564	6.51684500	33.34348900	60.74509900	#	H	TIP4P
5646	1745	2	-1.1128	11.18165100	29.39825800	17.32993700	#	O	TIP4P
5647	1745	3	0.5564	10.69113100	28.87152900	16.69892300	#	H	TIP4P
5648	1745	3	0.5564	10.97191100	29.01137000	18.17997100	#	H	TIP4P
5649	1746	2	-1.1128	27.45136500	9.62489800	15.50731300	#	O	TIP4P
5650	1746	3	0.5564	27.25038200	10.52084200	15.77772300	#	H	TIP4P
5651	1746	3	0.5564	26.60083200	9.18682100	15.47711600	#	H	TIP4P
5652	1747	2	-1.1128	13.15125900	11.51817700	41.23242000	#	O	TIP4P
5653	1747	3	0.5564	12.27700900	11.76578900	41.53343300	#	H	TIP4P
5654	1747	3	0.5564	13.74390400	12.09040000	41.71982600	#	H	TIP4P
5655	1748	2	-1.1128	1.53051700	9.11811200	56.15295600	#	O	TIP4P
5656	1748	3	0.5564	2.40515900	9.34330200	55.83590300	#	H	TIP4P
5657	1748	3	0.5564	1.48433700	8.16534400	56.07338200	#	H	TIP4P
5658	1749	2	-1.1128	1.46009600	11.09798000	25.72657000	#	O	TIP4P
5659	1749	3	0.5564	2.03871200	11.86023500	25.74662300	#	H	TIP4P
5660	1749	3	0.5564	2.05317800	10.34708000	25.70138600	#	H	TIP4P
5661	1750	2	-1.1128	14.31838600	7.91176900	60.56167300	#	O	TIP4P
5662	1750	3	0.5564	14.33767700	8.16744700	61.48389300	#	H	TIP4P
5663	1750	3	0.5564	15.18027700	8.15838800	60.22618200	#	H	TIP4P
5664	1751	2	-1.1128	18.93713800	12.42528100	31.71588100	#	O	TIP4P
5665	1751	3	0.5564	19.65242000	11.90855500	32.08682100	#	H	TIP4P
5666	1751	3	0.5564	19.28889000	13.31346200	31.65557400	#	H	TIP4P
5667	1752	2	-1.1128	8.91065600	17.44827100	47.36064100	#	O	TIP4P
5668	1752	3	0.5564	9.71790000	17.13768900	47.77067500	#	H	TIP4P
5669	1752	3	0.5564	8.22333000	17.23441800	47.99157700	#	H	TIP4P
5670	1753	2	-1.1128	5.72760900	10.94995600	69.20713200	#	O	TIP4P
5671	1753	3	0.5564	5.10787300	10.22047200	69.21084700	#	H	TIP4P
5672	1753	3	0.5564	6.00046800	11.03770100	70.12041200	#	H	TIP4P
5673	1754	2	-1.1128	11.80260300	26.10870500	53.30751800	#	O	TIP4P
5674	1754	3	0.5564	11.48625400	25.99413900	54.20363800	#	H	TIP4P
5675	1754	3	0.5564	11.04379100	26.43717600	52.82529100	#	H	TIP4P
5676	1755	2	-1.1128	11.31034200	33.15002600	52.60535600	#	O	TIP4P
5677	1755	3	0.5564	12.03936100	33.31347500	53.20372600	#	H	TIP4P
5678	1755	3	0.5564	11.68539800	32.60544300	51.91326300	#	H	TIP4P
5679	1756	2	-1.1128	11.76340400	14.51534100	50.75405000	#	O	TIP4P
5680	1756	3	0.5564	11.93631000	14.43203500	49.81628900	#	H	TIP4P
5681	1756	3	0.5564	11.95799800	15.43107500	50.95354100	#	H	TIP4P
5682	1757	2	-1.1128	24.87609300	10.08773200	65.28486400	#	O	TIP4P
5683	1757	3	0.5564	25.79601800	10.05970300	65.02183600	#	H	TIP4P
5684	1757	3	0.5564	24.70057900	9.21527100	65.63734000	#	H	TIP4P
5685	1758	2	-1.1128	14.18437400	32.11020600	43.71391200	#	O	TIP4P
5686	1758	3	0.5564	14.59488000	32.97391500	43.75541900	#	H	TIP4P
5687	1758	3	0.5564	14.91770400	31.49513200	43.72579000	#	H	TIP4P
5688	1759	2	-1.1128	9.36744000	16.62665800	50.44978300	#	O	TIP4P
5689	1759	3	0.5564	9.85572300	17.19853800	51.04203700	#	H	TIP4P
5690	1759	3	0.5564	8.45043300	16.75881300	50.69033300	#	H	TIP4P
5691	1760	2	-1.1128	8.56800800	21.64843400	12.45617900	#	O	TIP4P
5692	1760	3	0.5564	7.90777500	21.03330100	12.13690500	#	H	TIP4P
5693	1760	3	0.5564	8.58076500	21.51617300	13.40411200	#	H	TIP4P
5694	1761	2	-1.1128	19.25782100	25.35660600	31.80608600	#	O	TIP4P
5695	1761	3	0.5564	19.73540400	25.10420100	32.59630000	#	H	TIP4P
5696	1761	3	0.5564	18.94760100	24.52902000	31.43853100	#	H	TIP4P
5697	1762	2	-1.1128	30.58118600	29.97274200	25.69843300	#	O	TIP4P
5698	1762	3	0.5564	31.12423200	30.66751900	25.32612100	#	H	TIP4P
5699	1762	3	0.5564	31.15225300	29.20473700	25.71519200	#	H	TIP4P
5700	1763	2	-1.1128	21.03066100	22.61963900	65.39574700	#	O	TIP4P
5701	1763	3	0.5564	21.51957900	23.40973400	65.62583800	#	H	TIP4P
5702	1763	3	0.5564	21.39509200	22.34877800	64.55309900	#	H	TIP4P
5703	1764	2	-1.1128	22.24362500	21.65825700	41.91125700	#	O	TIP4P
5704	1764	3	0.5564	22.77886200	22.02194600	41.20593200	#	H	TIP4P
5705	1764	3	0.5564	21.37099500	21.56821500	41.52831900	#	H	TIP4P
5706	1765	2	-1.1128	26.64767000	1.70324900	67.49872000	#	O	TIP4P
5707	1765	3	0.5564	26.53062700	1.48241300	66.57472700	#	H	TIP4P
5708	1765	3	0.5564	25.80520300	1.49663300	67.90343000	#	H	TIP4P
5709	1766	2	-1.1128	24.91738200	19.02372700	54.86237100	#	O	TIP4P
5710	1766	3	0.5564	24.24617900	19.24236400	55.50883500	#	H	TIP4P
5711	1766	3	0.5564	24.46463500	18.47385000	54.22292700	#	H	TIP4P
5712	1767	2	-1.1128	31.14659400	11.27751800	54.07362800	#	O	TIP4P
5713	1767	3	0.5564	31.15041700	11.81649100	53.28260000	#	H	TIP4P
5714	1767	3	0.5564	30.60322000	11.76446700	54.69319000	#	H	TIP4P
5715	1768	2	-1.1128	18.25757200	5.36541800	49.17199000	#	O	TIP4P
5716	1768	3	0.5564	17.48830300	5.36253100	49.74159500	#	H	TIP4P
5717	1768	3	0.5564	18.25592900	6.23452400	48.77088800	#	H	TIP4P
5718	1769	2	-1.1128	12.92228000	17.93876700	62.53093800	#	O	TIP4P
5719	1769	3	0.5564	13.28308700	17.05301700	62.56961800	#	H	TIP4P
5720	1769	3	0.5564	12.05177600	17.82683400	62.14893700	#	H	TIP4P
5721	1770	2	-1.1128	9.35288200	13.19765000	35.88108600	#	O	TIP4P
5722	1770	3	0.5564	9.67796700	13.83803300	35.24826600	#	H	TIP4P
5723	1770	3	0.5564	9.36761600	13.65971400	36.71924500	#	H	TIP4P
5724	1771	2	-1.1128	8.23501500	30.00091200	61.18092100	#	O	TIP4P
5725	1771	3	0.5564	8.87671100	30.66512400	61.43247800	#	H	TIP4P
5726	1771	3	0.5564	7.56639300	30.04207500	61.86464700	#	H	TIP4P
5727	1772	2	-1.1128	30.56380500	22.75441600	24.62940600	#	O	TIP4P
5728	1772	3	0.5564	31.14982500	22.90471100	25.37117700	#	H	TIP4P
5729	1772	3	0.5564	29.77571700	22.37582300	25.01904200	#	H	TIP4P
5730	1773	2	-1.1128	6.51345100	12.88424200	63.99415400	#	O	TIP4P
5731	1773	3	0.5564	7.00455100	13.70367600	64.05398100	#	H	TIP4P
5732	1773	3	0.5564	5.62201400	13.15426500	63.77356600	#	H	TIP4P
5733	1774	2	-1.1128	2.23313000	25.07337600	57.55277600	#	O	TIP4P
5734	1774	3	0.5564	3.02999400	25.47648500	57.89736600	#	H	TIP4P
5735	1774	3	0.5564	2.54205000	24.47232700	56.87488300	#	H	TIP4P
5736	1775	2	-1.1128	28.55086300	8.82657600	43.01889100	#	O	TIP4P
5737	1775	3	0.5564	28.78134800	8.19333300	43.69867900	#	H	TIP4P
5738	1775	3	0.5564	27.81881200	9.32001300	43.38882500	#	H	TIP4P
5739	1776	2	-1.1128	22.01490800	4.44998600	65.15653500	#	O	TIP4P
5740	1776	3	0.5564	21.08692400	4.67106100	65.07776900	#	H	TIP4P
5741	1776	3	0.5564	22.47261200	5.19010600	64.75783500	#	H	TIP4P
5742	1777	2	-1.1128	1.60736900	2.22682500	14.13306500	#	O	TIP4P
5743	1777	3	0.5564	1.49925500	1.49787800	14.74394900	#	H	TIP4P
5744	1777	3	0.5564	2.01743500	1.83496800	13.36201000	#	H	TIP4P
5745	1778	2	-1.1128	25.49465300	15.35019300	36.91939700	#	O	TIP4P
5746	1778	3	0.5564	25.35065800	16.23717800	37.24917900	#	H	TIP4P
5747	1778	3	0.5564	25.89256800	14.88274600	37.65382800	#	H	TIP4P
5748	1779	2	-1.1128	21.07439700	6.89878600	35.47529900	#	O	TIP4P
5749	1779	3	0.5564	21.23175700	7.49782000	36.20511200	#	H	TIP4P
5750	1779	3	0.5564	20.52931500	6.20539000	35.84721100	#	H	TIP4P
5751	1780	2	-1.1128	27.55806900	1.67579600	71.32849100	#	O	TIP4P
5752	1780	3	0.5564	27.35707400	2.60750100	71.41657100	#	H	TIP4P
5753	1780	3	0.5564	27.46755200	1.49822100	70.39227200	#	H	TIP4P
5754	1781	2	-1.1128	15.81858100	24.94845700	17.96272700	#	O	TIP4P
5755	1781	3	0.5564	15.88710500	23.99953400	17.85745900	#	H	TIP4P
5756	1781	3	0.5564	16.10026100	25.11101000	18.86298500	#	H	TIP4P
5757	1782	2	-1.1128	5.71778400	15.26715200	52.53792400	#	O	TIP4P
5758	1782	3	0.5564	5.61157800	15.72162700	53.37363000	#	H	TIP4P
5759	1782	3	0.5564	6.61816500	15.45695300	52.27425600	#	H	TIP4P
5760	1783	2	-1.1128	11.20309500	19.51100900	27.27421300	#	O	TIP4P
5761	1783	3	0.5564	12.08565200	19.20737700	27.48665700	#	H	TIP4P
5762	1783	3	0.5564	10.97309600	19.03904400	26.47385000	#	H	TIP4P
5763	1784	2	-1.1128	26.13258400	26.55886200	41.90019900	#	O	TIP4P
5764	1784	3	0.5564	26.59501200	27.37637600	41.71563800	#	H	TIP4P
5765	1784	3	0.5564	25.72989900	26.69911800	42.75717300	#	H	TIP4P
5766	1785	2	-1.1128	7.77021200	24.87872500	30.25935900	#	O	TIP4P
5767	1785	3	0.5564	7.08552600	25.54744900	30.27499500	#	H	TIP4P
5768	1785	3	0.5564	8.52833100	25.30200500	30.66225000	#	H	TIP4P
5769	1786	2	-1.1128	18.30208100	7.67966600	54.50838400	#	O	TIP4P
5770	1786	3	0.5564	18.39840600	7.32144100	53.62598500	#	H	TIP4P
5771	1786	3	0.5564	17.65003700	7.11692700	54.92598900	#	H	TIP4P
5772	1787	2	-1.1128	12.37998300	12.55832300	22.03162400	#	O	TIP4P
5773	1787	3	0.5564	12.26957400	12.22370800	21.14163900	#	H	TIP4P
5774	1787	3	0.5564	11.74492600	12.06740300	22.55309400	#	H	TIP4P
5775	1788	2	-1.1128	10.74703600	3.60371200	40.22357000	#	O	TIP4P
5776	1788	3	0.5564	10.19128300	2.84125100	40.38489000	#	H	TIP4P
5777	1788	3	0.5564	10.46913100	4.24577500	40.87683500	#	H	TIP4P
5778	1789	2	-1.1128	11.92863900	5.06384400	37.14280900	#	O	TIP4P
5779	1789	3	0.5564	12.03617700	4.44237700	37.86284100	#	H	TIP4P
5780	1789	3	0.5564	12.82160800	5.31739600	36.90925100	#	H	TIP4P
5781	1790	2	-1.1128	28.22306300	17.42644200	12.57340300	#	O	TIP4P
5782	1790	3	0.5564	28.70754800	17.47618500	13.39743700	#	H	TIP4P
5783	1790	3	0.5564	27.51766100	18.06610000	12.67075600	#	H	TIP4P
5784	1791	2	-1.1128	4.23892900	15.81891600	18.89902000	#	O	TIP4P
5785	1791	3	0.5564	3.37796200	15.40099800	18.88139200	#	H	TIP4P
5786	1791	3	0.5564	4.84959100	15.10311700	19.07496100	#	H	TIP4P
5787	1792	2	-1.1128	14.69007300	12.44201900	27.26051700	#	O	TIP4P
5788	1792	3	0.5564	14.81511400	11.83604700	27.99085500	#	H	TIP4P
5789	1792	3	0.5564	13.77757300	12.31804800	26.99935200	#	H	TIP4P
5790	1793	2	-1.1128	9.26556000	12.07865300	25.01218200	#	O	TIP4P
5791	1793	3	0.5564	9.60380300	11.64841700	24.22686600	#	H	TIP4P
5792	1793	3	0.5564	8.36240100	12.30598500	24.79115300	#	H	TIP4P
5793	1794	2	-1.1128	30.99583500	33.23448500	64.04277600	#	O	TIP4P
5794	1794	3	0.5564	31.15379900	32.38518800	63.63049600	#	H	TIP4P
5795	1794	3	0.5564	30.91579000	33.03706800	64.97596900	#	H	TIP4P
5796	1795	2	-1.1128	27.44560300	29.34623900	13.81111400	#	O	TIP4P
5797	1795	3	0.5564	27.39947800	28.85542000	14.63160200	#	H	TIP4P
5798	1795	3	0.5564	26.53654500	29.57405600	13.61631700	#	H	TIP4P
5799	1796	2	-1.1128	28.40220500	31.73349000	28.47532000	#	O	TIP4P
5800	1796	3	0.5564	28.50792500	32.60232600	28.86285000	#	H	TIP4P
5801	1796	3	0.5564	27.51285800	31.47126100	28.71308100	#	H	TIP4P
5802	1797	2	-1.1128	4.08156800	15.29098900	42.62674600	#	O	TIP4P
5803	1797	3	0.5564	4.62925000	14.59776400	42.25834900	#	H	TIP4P
5804	1797	3	0.5564	3.53679800	15.58083200	41.89500200	#	H	TIP4P
5805	1798	2	-1.1128	13.41362700	3.63597400	53.14094700	#	O	TIP4P
5806	1798	3	0.5564	12.64635900	4.05222300	52.74817800	#	H	TIP4P
5807	1798	3	0.5564	13.78632200	3.10613900	52.43624500	#	H	TIP4P
5808	1799	2	-1.1128	28.03651100	22.51595800	44.30340400	#	O	TIP4P
5809	1799	3	0.5564	28.64003900	21.90763600	44.72993700	#	H	TIP4P
5810	1799	3	0.5564	28.37422100	23.38382400	44.52474500	#	H	TIP4P
5811	1800	2	-1.1128	10.46691800	27.71479200	31.09535600	#	O	TIP4P
5812	1800	3	0.5564	10.09816600	28.04640600	31.91406500	#	H	TIP4P
5813	1800	3	0.5564	10.80224900	28.49319300	30.65052200	#	H	TIP4P
5814	1801	2	-1.1128	28.83340400	9.37745500	22.14851700	#	O	TIP4P
5815	1801	3	0.5564	29.01350800	8.44858000	22.29338000	#	H	TIP4P
5816	1801	3	0.5564	27.89402500	9.41453700	21.96845200	#	H	TIP4P
5817	1802	2	-1.1128	22.39155300	9.14085500	71.55733500	#	O	TIP4P
5818	1802	3	0.5564	22.65141200	8.32705600	71.98911700	#	H	TIP4P
5819	1802	3	0.5564	22.86731400	9.82496800	72.02836900	#	H	TIP4P
5820	1803	2	-1.1128	8.30879000	21.23753300	72.01673900	#	O	TIP4P
5821	1803	3	0.5564	7.55328800	20.65002700	72.03358700	#	H	TIP4P
5822	1803	3	0.5564	9.06711200	20.65343000	72.01874300	#	H	TIP4P
5823	1804	2	-1.1128	25.27597000	18.96732500	34.90736500	#	O	TIP4P
5824	1804	3	0.5564	26.07546200	18.86765500	34.39053900	#	H	TIP4P
5825	1804	3	0.5564	25.08793200	18.08629100	35.23086500	#	H	TIP4P
5826	1805	2	-1.1128	12.88567000	25.48467600	38.64580400	#	O	TIP4P
5827	1805	3	0.5564	12.68943500	25.52137200	37.70965400	#	H	TIP4P
5828	1805	3	0.5564	13.54080400	26.16939000	38.78069900	#	H	TIP4P
5829	1806	2	-1.1128	30.94307700	13.59826700	61.60996000	#	O	TIP4P
5830	1806	3	0.5564	31.16064300	14.23280800	60.92713100	#	H	TIP4P
5831	1806	3	0.5564	30.08421600	13.25924000	61.35767100	#	H	TIP4P
5832	1807	2	-1.1128	15.72944100	30.25775000	16.58568900	#	O	TIP4P
5833	1807	3	0.5564	16.54121800	30.76428000	16.61170300	#	H	TIP4P
5834	1807	3	0.5564	15.21159700	30.59664900	17.31590500	#	H	TIP4P
5835	1808	2	-1.1128	15.82707400	27.51936300	16.36210600	#	O	TIP4P
5836	1808	3	0.5564	16.65348100	27.28954900	16.78692400	#	H	TIP4P
5837	1808	3	0.5564	15.96177700	27.29937100	15.44031900	#	H	TIP4P
5838	1809	2	-1.1128	21.91210500	12.26259100	26.94698700	#	O	TIP4P
5839	1809	3	0.5564	21.34184500	11.49586000	26.89077000	#	H	TIP4P
5840	1809	3	0.5564	21.33155300	12.97420000	27.21680600	#	H	TIP4P
5841	1810	2	-1.1128	12.73823600	9.17502800	31.86534800	#	O	TIP4P
5842	1810	3	0.5564	11.80011300	9.07395700	32.02641500	#	H	TIP4P
5843	1810	3	0.5564	12.82449400	10.05216300	31.49195000	#	H	TIP4P
5844	1811	2	-1.1128	25.93404900	27.57706600	18.39968200	#	O	TIP4P
5845	1811	3	0.5564	25.59400100	28.47064100	18.35359500	#	H	TIP4P
5846	1811	3	0.5564	25.84676700	27.33431800	19.32146700	#	H	TIP4P
5847	1812	2	-1.1128	19.89665500	31.57586400	58.62663800	#	O	TIP4P
5848	1812	3	0.5564	19.38996800	30.77358100	58.75250900	#	H	TIP4P
5849	1812	3	0.5564	19.52521400	32.19532300	59.25475700	#	H	TIP4P
5850	1813	2	-1.1128	4.29934100	30.56824400	39.03742800	#	O	TIP4P
5851	1813	3	0.5564	4.19286400	29.90607800	38.35447100	#	H	TIP4P
5852	1813	3	0.5564	4.19150200	31.40287800	38.58137000	#	H	TIP4P
5853	1814	2	-1.1128	3.97353000	32.15178300	71.73964600	#	O	TIP4P
5854	1814	3	0.5564	3.71720900	31.59771600	71.00239400	#	H	TIP4P
5855	1814	3	0.5564	4.44868300	32.87973300	71.33895800	#	H	TIP4P
5856	1815	2	-1.1128	10.74429600	28.68433800	55.83931700	#	O	TIP4P
5857	1815	3	0.5564	10.83371300	27.79358700	56.17813600	#	H	TIP4P
5858	1815	3	0.5564	11.03258500	28.62471900	54.92851100	#	H	TIP4P
5859	1816	2	-1.1128	13.31926700	20.55785500	55.24727600	#	O	TIP4P
5860	1816	3	0.5564	12.85440100	19.72269800	55.19583800	#	H	TIP4P
5861	1816	3	0.5564	14.21894900	20.31843000	55.46971600	#	H	TIP4P
5862	1817	2	-1.1128	21.67012900	30.09951800	12.61267300	#	O	TIP4P
5863	1817	3	0.5564	21.49588500	30.84933800	12.04377800	#	H	TIP4P
5864	1817	3	0.5564	22.58466800	29.87524900	12.44076300	#	H	TIP4P
5865	1818	2	-1.1128	14.59185500	8.86692500	45.94384800	#	O	TIP4P
5866	1818	3	0.5564	13.67265200	8.84880200	46.21024900	#	H	TIP4P
5867	1818	3	0.5564	14.70093300	9.71604900	45.51568700	#	H	TIP4P
5868	1819	2	-1.1128	7.57647100	33.20779900	29.30316600	#	O	TIP4P
5869	1819	3	0.5564	8.12523700	33.30149800	30.08182500	#	H	TIP4P
5870	1819	3	0.5564	6.68089200	33.30005800	29.62821600	#	H	TIP4P
5871	1820	2	-1.1128	6.55029100	22.97984400	53.27008300	#	O	TIP4P
5872	1820	3	0.5564	6.74166400	23.91575000	53.33080900	#	H	TIP4P
5873	1820	3	0.5564	5.92356300	22.81681300	53.97497000	#	H	TIP4P
5874	1821	2	-1.1128	18.99766600	2.29524400	38.66231700	#	O	TIP4P
5875	1821	3	0.5564	19.67721600	2.81952800	39.08607500	#	H	TIP4P
5876	1821	3	0.5564	19.45088900	1.50321000	38.37334800	#	H	TIP4P
5877	1822	2	-1.1128	18.40742100	28.30504800	50.96239700	#	O	TIP4P
5878	1822	3	0.5564	18.97543400	28.29279800	50.19204400	#	H	TIP4P
5879	1822	3	0.5564	18.32825600	27.38568700	51.21683900	#	H	TIP4P
5880	1823	2	-1.1128	28.72520700	12.44851800	18.28696300	#	O	TIP4P
5881	1823	3	0.5564	28.64567100	12.91384800	19.11965300	#	H	TIP4P
5882	1823	3	0.5564	27.99699300	12.77555600	17.75877600	#	H	TIP4P
5883	1824	2	-1.1128	20.65273400	21.95549500	33.02319600	#	O	TIP4P
5884	1824	3	0.5564	20.63386900	22.57273900	33.75455600	#	H	TIP4P
5885	1824	3	0.5564	19.87708400	22.17247300	32.50597300	#	H	TIP4P
5886	1825	2	-1.1128	12.35680100	17.76192200	37.68242900	#	O	TIP4P
5887	1825	3	0.5564	11.99441600	18.64776600	37.69617400	#	H	TIP4P
5888	1825	3	0.5564	12.74457200	17.64777200	38.55008900	#	H	TIP4P
5889	1826	2	-1.1128	25.01990200	22.39547500	42.75478200	#	O	TIP4P
5890	1826	3	0.5564	25.58521400	23.04288300	43.17610900	#	H	TIP4P
5891	1826	3	0.5564	25.52425000	22.09131400	42.00022900	#	H	TIP4P
5892	1827	2	-1.1128	27.06778700	2.18688000	30.70546700	#	O	TIP4P
5893	1827	3	0.5564	27.67412900	1.48715100	30.46265000	#	H	TIP4P
5894	1827	3	0.5564	26.47427900	1.78150100	31.33764300	#	H	TIP4P
5895	1828	2	-1.1128	5.31883600	17.01545800	39.90422300	#	O	TIP4P
5896	1828	3	0.5564	5.64354300	16.96882200	40.80345700	#	H	TIP4P
5897	1828	3	0.5564	6.10832000	17.00407200	39.36309800	#	H	TIP4P
5898	1829	2	-1.1128	17.88228900	13.49939700	61.76090100	#	O	TIP4P
5899	1829	3	0.5564	17.00056800	13.87175600	61.77306400	#	H	TIP4P
5900	1829	3	0.5564	18.46371300	14.25966900	61.74807800	#	H	TIP4P
5901	1830	2	-1.1128	28.16107500	20.71005100	14.32753100	#	O	TIP4P
5902	1830	3	0.5564	28.84313900	20.17137900	13.92646500	#	H	TIP4P
5903	1830	3	0.5564	27.39567900	20.58509000	13.76647400	#	H	TIP4P
5904	1831	2	-1.1128	6.23240700	3.48815400	63.74897100	#	O	TIP4P
5905	1831	3	0.5564	6.67760200	3.80299200	62.96226200	#	H	TIP4P
5906	1831	3	0.5564	5.38047400	3.18319200	63.43681700	#	H	TIP4P
5907	1832	2	-1.1128	15.56466800	10.48343100	21.97275400	#	O	TIP4P
5908	1832	3	0.5564	16.24590400	10.20795600	22.58615700	#	H	TIP4P
5909	1832	3	0.5564	15.82567100	10.09916700	21.13582500	#	H	TIP4P
5910	1833	2	-1.1128	28.61478700	16.62197500	68.57104100	#	O	TIP4P
5911	1833	3	0.5564	28.46397100	15.67673100	68.57092700	#	H	TIP4P
5912	1833	3	0.5564	27.74083000	17.00443100	68.64951300	#	H	TIP4P
5913	1834	2	-1.1128	25.49800800	6.20628500	28.02713800	#	O	TIP4P
5914	1834	3	0.5564	24.84356800	5.59400400	28.36337000	#	H	TIP4P
5915	1834	3	0.5564	26.30592000	5.96744600	28.48152200	#	H	TIP4P
5916	1835	2	-1.1128	19.61121500	30.98140900	47.62988600	#	O	TIP4P
5917	1835	3	0.5564	20.51866700	30.80942800	47.37852100	#	H	TIP4P
5918	1835	3	0.5564	19.31036000	31.64186200	47.00577000	#	H	TIP4P
5919	1836	2	-1.1128	29.11042800	24.36851600	22.66941500	#	O	TIP4P
5920	1836	3	0.5564	28.36871800	24.93456800	22.45568000	#	H	TIP4P
5921	1836	3	0.5564	28.85165800	23.50355600	22.35143100	#	H	TIP4P
5922	1837	2	-1.1128	14.05949000	1.85114600	36.69169400	#	O	TIP4P
5923	1837	3	0.5564	13.53583700	1.47818800	35.98252400	#	H	TIP4P
5924	1837	3	0.5564	13.87438200	2.78969700	36.65870900	#	H	TIP4P
5925	1838	2	-1.1128	15.08910800	31.92106300	58.13733200	#	O	TIP4P
5926	1838	3	0.5564	14.17466700	31.84300900	57.86541700	#	H	TIP4P
5927	1838	3	0.5564	15.06308700	32.49071600	58.90612900	#	H	TIP4P
5928	1839	2	-1.1128	31.15976100	5.10066100	57.74626200	#	O	TIP4P
5929	1839	3	0.5564	30.50938500	5.80018900	57.80873900	#	H	TIP4P
5930	1839	3	0.5564	31.05348200	4.75253000	56.86097100	#	H	TIP4P
5931	1840	2	-1.1128	14.87304900	24.38444200	15.02888300	#	O	TIP4P
5932	1840	3	0.5564	14.31425400	25.10092300	15.32994000	#	H	TIP4P
5933	1840	3	0.5564	14.30144300	23.61666100	15.03211900	#	H	TIP4P
5934	1841	2	-1.1128	2.15231200	26.62080900	55.20435400	#	O	TIP4P
5935	1841	3	0.5564	2.87396000	27.21954200	55.39664200	#	H	TIP4P
5936	1841	3	0.5564	1.42441500	27.19269900	54.96076100	#	H	TIP4P
5937	1842	2	-1.1128	21.69934600	30.88846400	21.67540300	#	O	TIP4P
5938	1842	3	0.5564	21.81320500	29.94246800	21.58397300	#	H	TIP4P
5939	1842	3	0.5564	22.58952700	31.23042200	21.75831000	#	H	TIP4P
5940	1843	2	-1.1128	10.86449400	5.15904000	20.73905500	#	O	TIP4P
5941	1843	3	0.5564	10.46088300	5.05955200	21.60128000	#	H	TIP4P
5942	1843	3	0.5564	11.03302400	4.26283500	20.44811400	#	H	TIP4P
5943	1844	2	-1.1128	4.27553600	33.31292100	35.79196600	#	O	TIP4P
5944	1844	3	0.5564	4.21189200	33.30902900	34.83689200	#	H	TIP4P
5945	1844	3	0.5564	3.92127000	32.46490800	36.05955100	#	H	TIP4P
5946	1845	2	-1.1128	19.82115700	7.37441600	23.46029200	#	O	TIP4P
5947	1845	3	0.5564	18.91662400	7.22976800	23.18257000	#	H	TIP4P
5948	1845	3	0.5564	20.31850400	7.42023300	22.64372700	#	H	TIP4P
5949	1846	2	-1.1128	14.43549400	27.98722500	71.09042800	#	O	TIP4P
5950	1846	3	0.5564	13.78026500	27.29080000	71.13401200	#	H	TIP4P
5951	1846	3	0.5564	13.96089900	28.74176700	70.74163600	#	H	TIP4P
5952	1847	2	-1.1128	18.33412000	20.15377200	49.51637400	#	O	TIP4P
5953	1847	3	0.5564	17.48383800	19.84945400	49.83361600	#	H	TIP4P
5954	1847	3	0.5564	18.14915900	20.52700300	48.65456200	#	H	TIP4P
5955	1848	2	-1.1128	1.92116500	12.66669200	31.75867200	#	O	TIP4P
5956	1848	3	0.5564	1.49520400	13.44912300	31.40854200	#	H	TIP4P
5957	1848	3	0.5564	1.48265300	12.50847500	32.59467800	#	H	TIP4P
5958	1849	2	-1.1128	5.56264200	22.48337700	47.54300300	#	O	TIP4P
5959	1849	3	0.5564	6.42199200	22.09233100	47.38541700	#	H	TIP4P
5960	1849	3	0.5564	5.03730700	21.77017100	47.90575700	#	H	TIP4P
5961	1850	2	-1.1128	18.56355500	14.15439700	70.70821800	#	O	TIP4P
5962	1850	3	0.5564	18.82410700	15.04437500	70.47097700	#	H	TIP4P
5963	1850	3	0.5564	18.22422700	14.23328700	71.59977000	#	H	TIP4P
5964	1851	2	-1.1128	19.34011100	30.56001500	52.29852300	#	O	TIP4P
5965	1851	3	0.5564	18.39789700	30.61521500	52.45795500	#	H	TIP4P
5966	1851	3	0.5564	19.45447200	30.90648200	51.41358600	#	H	TIP4P
5967	1852	2	-1.1128	7.53180300	26.90737600	22.61587300	#	O	TIP4P
5968	1852	3	0.5564	8.29311000	26.38229100	22.86270900	#	H	TIP4P
5969	1852	3	0.5564	7.24609300	26.53785800	21.78037400	#	H	TIP4P
5970	1853	2	-1.1128	7.54218500	24.09547400	19.96329500	#	O	TIP4P
5971	1853	3	0.5564	7.00432800	24.28900700	19.19551500	#	H	TIP4P
5972	1853	3	0.5564	8.23826900	24.75211100	19.94037500	#	H	TIP4P
5973	1854	2	-1.1128	4.53644500	7.92758600	34.29933100	#	O	TIP4P
5974	1854	3	0.5564	4.91590800	7.19792200	33.80960700	#	H	TIP4P
5975	1854	3	0.5564	4.15372500	7.52142400	35.07701300	#	H	TIP4P
5976	1855	2	-1.1128	24.47867200	5.41051700	66.71800300	#	O	TIP4P
5977	1855	3	0.5564	25.03537800	4.71113000	66.37570400	#	H	TIP4P
5978	1855	3	0.5564	24.64549600	6.15480000	66.13969300	#	H	TIP4P
5979	1856	2	-1.1128	20.40953100	1.56114000	13.61381300	#	O	TIP4P
5980	1856	3	0.5564	20.05917600	1.61963800	14.50266700	#	H	TIP4P
5981	1856	3	0.5564	19.63543600	1.49639600	13.05451300	#	H	TIP4P
5982	1857	2	-1.1128	1.47904400	18.11160700	54.55362800	#	O	TIP4P
5983	1857	3	0.5564	1.53969500	17.45160200	55.24424100	#	H	TIP4P
5984	1857	3	0.5564	1.50747200	18.94815100	55.01797500	#	H	TIP4P
5985	1858	2	-1.1128	9.43125800	13.52037600	13.07757300	#	O	TIP4P
5986	1858	3	0.5564	9.09219100	14.09887400	13.76065800	#	H	TIP4P
5987	1858	3	0.5564	9.57420700	14.09505400	12.32554800	#	H	TIP4P
5988	1859	2	-1.1128	3.10987800	12.57651000	59.98205800	#	O	TIP4P
5989	1859	3	0.5564	3.80467800	13.13131300	60.33657000	#	H	TIP4P
5990	1859	3	0.5564	2.93476000	12.93716900	59.11286900	#	H	TIP4P
5991	1860	2	-1.1128	31.15374300	3.61859300	13.29881600	#	O	TIP4P
5992	1860	3	0.5564	31.14561400	3.42814800	12.36078800	#	H	TIP4P
5993	1860	3	0.5564	30.26602500	3.92135100	13.48993300	#	H	TIP4P
5994	1861	2	-1.1128	16.67849500	10.15310900	38.42964100	#	O	TIP4P
5995	1861	3	0.5564	16.89437600	10.13861500	37.49721600	#	H	TIP4P
5996	1861	3	0.5564	16.88442400	9.27043800	38.73740400	#	H	TIP4P
5997	1862	2	-1.1128	9.80436600	23.30463900	63.01552700	#	O	TIP4P
5998	1862	3	0.5564	10.72000000	23.05743600	62.88615500	#	H	TIP4P
5999	1862	3	0.5564	9.30764700	22.65311200	62.52053800	#	H	TIP4P
6000	1863	2	-1.1128	6.13972800	23.60301800	34.40562400	#	O	TIP4P
6001	1863	3	0.5564	5.35618000	23.49194500	34.94409100	#	H	TIP4P
6002	1863	3	0.5564	6.85343200	23.26809000	34.94847000	#	H	TIP4P
6003	1864	2	-1.1128	9.44131200	8.74321700	42.79912500	#	O	TIP4P
6004	1864	3	0.5564	9.94853700	9.55354800	42.84727000	#	H	TIP4P
6005	1864	3	0.5564	10.09924500	8.04798100	42.79777300	#	H	TIP4P
6006	1865	2	-1.1128	21.20563300	16.68716600	20.96332400	#	O	TIP4P
6007	1865	3	0.5564	20.80886700	16.52249400	20.10793400	#	H	TIP4P
6008	1865	3	0.5564	21.61869900	17.54611500	20.87492000	#	H	TIP4P
6009	1866	2	-1.1128	1.52080200	19.21911300	47.25694200	#	O	TIP4P
6010	1866	3	0.5564	1.46357300	18.26675400	47.17967800	#	H	TIP4P
6011	1866	3	0.5564	1.51516100	19.53399200	46.35303300	#	H	TIP4P
6012	1867	2	-1.1128	14.25656800	26.99302900	60.25023900	#	O	TIP4P
6013	1867	3	0.5564	13.75827200	27.73451500	60.59394200	#	H	TIP4P
6014	1867	3	0.5564	13.59075400	26.35698600	59.98875900	#	H	TIP4P
6015	1868	2	-1.1128	21.69343600	18.13386600	23.56020100	#	O	TIP4P
6016	1868	3	0.5564	21.29220500	18.93927200	23.23375700	#	H	TIP4P
6017	1868	3	0.5564	20.97645000	17.50005700	23.58139800	#	H	TIP4P
6018	1869	2	-1.1128	11.67725100	12.30353800	53.93016300	#	O	TIP4P
6019	1869	3	0.5564	11.94342900	12.70737300	53.10414900	#	H	TIP4P
6020	1869	3	0.5564	12.09143400	11.44064800	53.91986900	#	H	TIP4P
6021	1870	2	-1.1128	3.69213100	16.55202100	21.52725100	#	O	TIP4P
6022	1870	3	0.5564	4.08491600	16.77330800	22.37163500	#	H	TIP4P
6023	1870	3	0.5564	3.49428100	17.39801400	21.12552600	#	H	TIP4P
6024	1871	2	-1.1128	23.39269300	21.90806700	45.10955800	#	O	TIP4P
6025	1871	3	0.5564	22.76989200	21.33297300	44.66501600	#	H	TIP4P
6026	1871	3	0.5564	24.13833500	21.34318800	45.31243700	#	H	TIP4P
6027	1872	2	-1.1128	15.32660000	20.66681000	17.48598600	#	O	TIP4P
6028	1872	3	0.5564	14.63391200	20.01807300	17.61070400	#	H	TIP4P
6029	1872	3	0.5564	14.86108900	21.49328500	17.35765500	#	H	TIP4P
6030	1873	2	-1.1128	10.88427900	4.79322800	57.82723100	#	O	TIP4P
6031	1873	3	0.5564	11.51699300	5.51130800	57.84356300	#	H	TIP4P
6032	1873	3	0.5564	10.03158000	5.22569800	57.78135500	#	H	TIP4P
6033	1874	2	-1.1128	22.42711000	10.93929900	58.36982700	#	O	TIP4P
6034	1874	3	0.5564	23.01347200	11.53987500	57.90969700	#	H	TIP4P
6035	1874	3	0.5564	22.94495100	10.14328900	58.48999700	#	H	TIP4P
6036	1875	2	-1.1128	17.64232700	21.39452400	66.37436900	#	O	TIP4P
6037	1875	3	0.5564	18.48035200	21.02197900	66.64851600	#	H	TIP4P
6038	1875	3	0.5564	17.26652200	20.73591400	65.79021700	#	H	TIP4P
6039	1876	2	-1.1128	18.52615800	5.68338400	38.19468200	#	O	TIP4P
6040	1876	3	0.5564	18.06088600	4.84717900	38.17198500	#	H	TIP4P
6041	1876	3	0.5564	19.45026800	5.44218100	38.25850600	#	H	TIP4P
6042	1877	2	-1.1128	11.09644600	23.55503800	47.85878400	#	O	TIP4P
6043	1877	3	0.5564	11.93858000	23.84279200	47.50630800	#	H	TIP4P
6044	1877	3	0.5564	10.45128200	24.11336500	47.42488700	#	H	TIP4P
6045	1878	2	-1.1128	31.16921800	18.76237200	32.82342500	#	O	TIP4P
6046	1878	3	0.5564	31.04143000	17.81425500	32.85468700	#	H	TIP4P
6047	1878	3	0.5564	30.30649900	19.12742100	33.02011600	#	H	TIP4P
6048	1879	2	-1.1128	18.31190400	9.28651900	35.30034700	#	O	TIP4P
6049	1879	3	0.5564	18.89349000	8.54119500	35.15040500	#	H	TIP4P
6050	1879	3	0.5564	18.84129800	10.05248000	35.07835900	#	H	TIP4P
6051	1880	2	-1.1128	7.92915300	30.29878400	17.41425000	#	O	TIP4P
6052	1880	3	0.5564	8.74191700	30.58264200	17.83266400	#	H	TIP4P
6053	1880	3	0.5564	8.19573900	30.01527900	16.53972900	#	H	TIP4P
6054	1881	2	-1.1128	16.63756900	16.46443800	71.34337200	#	O	TIP4P
6055	1881	3	0.5564	16.62498100	17.21688200	70.75184700	#	H	TIP4P
6056	1881	3	0.5564	16.05759100	16.71479500	72.06252300	#	H	TIP4P
6057	1882	2	-1.1128	5.21038400	25.53720400	64.58152500	#	O	TIP4P
6058	1882	3	0.5564	5.22782300	26.49113600	64.65860500	#	H	TIP4P
6059	1882	3	0.5564	4.28482400	25.32272900	64.46502800	#	H	TIP4P
6060	1883	2	-1.1128	25.37156800	14.31205000	47.82330400	#	O	TIP4P
6061	1883	3	0.5564	25.28646000	15.19740900	47.46957000	#	H	TIP4P
6062	1883	3	0.5564	24.52609000	13.90014400	47.64516700	#	H	TIP4P
6063	1884	2	-1.1128	7.21646200	4.15995800	42.30582800	#	O	TIP4P
6064	1884	3	0.5564	7.05230300	4.17191900	41.36288500	#	H	TIP4P
6065	1884	3	0.5564	8.16926300	4.20754400	42.38417200	#	H	TIP4P
6066	1885	2	-1.1128	22.61320100	2.37029800	48.03791300	#	O	TIP4P
6067	1885	3	0.5564	22.96617600	1.48114100	48.00567100	#	H	TIP4P
6068	1885	3	0.5564	23.37442400	2.92460900	48.20970100	#	H	TIP4P
6069	1886	2	-1.1128	13.34872900	7.20720200	64.27729500	#	O	TIP4P
6070	1886	3	0.5564	12.47289600	6.85905300	64.44444800	#	H	TIP4P
6071	1886	3	0.5564	13.20173600	8.12270300	64.03963300	#	H	TIP4P
6072	1887	2	-1.1128	4.13196100	7.60221500	30.38800100	#	O	TIP4P
6073	1887	3	0.5564	4.44341600	6.89077500	29.82846500	#	H	TIP4P
6074	1887	3	0.5564	3.95814300	7.18528600	31.23191300	#	H	TIP4P
6075	1888	2	-1.1128	26.43948000	1.95379600	47.77800600	#	O	TIP4P
6076	1888	3	0.5564	25.71095300	1.47564500	48.17405100	#	H	TIP4P
6077	1888	3	0.5564	27.22212300	1.49654800	48.08561800	#	H	TIP4P
6078	1889	2	-1.1128	7.17465600	28.32899800	14.57306100	#	O	TIP4P
6079	1889	3	0.5564	8.07590200	28.01445300	14.64412800	#	H	TIP4P
6080	1889	3	0.5564	7.15061400	28.80255700	13.74155900	#	H	TIP4P
6081	1890	2	-1.1128	26.69090300	33.18879200	68.88953200	#	O	TIP4P
6082	1890	3	0.5564	27.54365200	33.25194600	68.45934100	#	H	TIP4P
6083	1890	3	0.5564	26.05623900	33.30681700	68.18277700	#	H	TIP4P
6084	1891	2	-1.1128	3.48180000	31.00625500	25.44907600	#	O	TIP4P
6085	1891	3	0.5564	3.77544100	30.36591400	26.09712700	#	H	TIP4P
6086	1891	3	0.5564	2.74450000	30.58236100	25.00983400	#	H	TIP4P
6087	1892	2	-1.1128	3.76513600	11.13897500	66.13213400	#	O	TIP4P
6088	1892	3	0.5564	4.27089100	10.47806100	66.60503500	#	H	TIP4P
6089	1892	3	0.5564	4.29691600	11.34304300	65.36285000	#	H	TIP4P
6090	1893	2	-1.1128	9.48740000	9.66708200	68.89143400	#	O	TIP4P
6091	1893	3	0.5564	8.88393100	9.04895900	69.30372400	#	H	TIP4P
6092	1893	3	0.5564	10.16258600	9.11575700	68.49596400	#	H	TIP4P
6093	1894	2	-1.1128	9.42680900	19.09762200	15.60293200	#	O	TIP4P
6094	1894	3	0.5564	9.34077500	20.05094800	15.60347600	#	H	TIP4P
6095	1894	3	0.5564	10.32380600	18.93744300	15.89613600	#	H	TIP4P
6096	1895	2	-1.1128	14.74092300	16.38208800	59.78644600	#	O	TIP4P
6097	1895	3	0.5564	15.57761500	15.96870800	59.99927100	#	H	TIP4P
6098	1895	3	0.5564	14.75904400	17.21611400	60.25581000	#	H	TIP4P
6099	1896	2	-1.1128	12.25845300	28.26189100	40.02006600	#	O	TIP4P
6100	1896	3	0.5564	11.55750200	27.61008200	40.02679400	#	H	TIP4P
6101	1896	3	0.5564	12.09461400	28.79851500	40.79558000	#	H	TIP4P
6102	1897	2	-1.1128	20.82737100	33.33594100	30.18165300	#	O	TIP4P
6103	1897	3	0.5564	20.64370100	33.30534600	29.24273800	#	H	TIP4P
6104	1897	3	0.5564	20.57786300	32.46963500	30.50335100	#	H	TIP4P
6105	1898	2	-1.1128	15.06740500	1.56915200	42.75756500	#	O	TIP4P
6106	1898	3	0.5564	14.52809800	1.45996600	41.97432900	#	H	TIP4P
6107	1898	3	0.5564	14.45062500	1.49537800	43.48583100	#	H	TIP4P
6108	1899	2	-1.1128	25.13173400	17.42752400	51.43122800	#	O	TIP4P
6109	1899	3	0.5564	25.71227800	17.25562800	50.68984300	#	H	TIP4P
6110	1899	3	0.5564	24.99256800	18.37436900	51.41256700	#	H	TIP4P
6111	1900	2	-1.1128	6.90049600	9.70484900	43.22307100	#	O	TIP4P
6112	1900	3	0.5564	7.02803600	9.64610200	44.16991500	#	H	TIP4P
6113	1900	3	0.5564	6.01768600	9.36440000	43.07825100	#	H	TIP4P
6114	1901	2	-1.1128	23.53560200	25.25704400	41.03344900	#	O	TIP4P
6115	1901	3	0.5564	24.13749000	24.70303900	41.53048100	#	H	TIP4P
6116	1901	3	0.5564	22.71498400	24.76458300	41.01610400	#	H	TIP4P
6117	1902	2	-1.1128	6.30225700	22.93739800	71.15996100	#	O	TIP4P
6118	1902	3	0.5564	6.49643800	23.32145800	72.01496000	#	H	TIP4P
6119	1902	3	0.5564	5.53988000	22.37972800	71.31493500	#	H	TIP4P
6120	1903	2	-1.1128	17.96732500	18.65773000	30.76882400	#	O	TIP4P
6121	1903	3	0.5564	17.46214400	17.89478000	31.04977400	#	H	TIP4P
6122	1903	3	0.5564	17.57073500	19.39330300	31.23560000	#	H	TIP4P
6123	1904	2	-1.1128	21.73548600	22.29165900	36.65575900	#	O	TIP4P
6124	1904	3	0.5564	22.09704900	22.94167200	36.05327500	#	H	TIP4P
6125	1904	3	0.5564	20.79344900	22.30549000	36.48662500	#	H	TIP4P
6126	1905	2	-1.1128	2.64546200	23.97964300	43.64788900	#	O	TIP4P
6127	1905	3	0.5564	1.79066400	23.75751800	43.27881800	#	H	TIP4P
6128	1905	3	0.5564	3.17721600	24.22533100	42.89085000	#	H	TIP4P
6129	1906	2	-1.1128	23.19824200	21.36328900	22.02598000	#	O	TIP4P
6130	1906	3	0.5564	23.24190700	20.40881000	21.96857100	#	H	TIP4P
6131	1906	3	0.5564	22.26231300	21.56256300	22.00238600	#	H	TIP4P
6132	1907	2	-1.1128	8.08779200	27.16342100	18.62698900	#	O	TIP4P
6133	1907	3	0.5564	7.21258300	27.55070500	18.64287800	#	H	TIP4P
6134	1907	3	0.5564	8.57028800	27.68690100	17.98714800	#	H	TIP4P
6135	1908	2	-1.1128	29.27844800	6.72626600	30.20250100	#	O	TIP4P
6136	1908	3	0.5564	29.13401000	7.67105100	30.25495500	#	H	TIP4P
6137	1908	3	0.5564	28.39985500	6.34732700	30.22916300	#	H	TIP4P
6138	1909	2	-1.1128	4.14899700	10.25203200	51.17819900	#	O	TIP4P
6139	1909	3	0.5564	4.80030600	10.91174200	51.41655000	#	H	TIP4P
6140	1909	3	0.5564	3.62332500	10.13680100	51.96979400	#	H	TIP4P
6141	1910	2	-1.1128	19.42757200	13.30736600	17.42070400	#	O	TIP4P
6142	1910	3	0.5564	19.25813100	13.87701600	18.17105200	#	H	TIP4P
6143	1910	3	0.5564	19.23415600	13.85181000	16.65755100	#	H	TIP4P
6144	1911	2	-1.1128	1.47822100	6.63484900	60.37867400	#	O	TIP4P
6145	1911	3	0.5564	2.33220500	6.53737300	60.79991300	#	H	TIP4P
6146	1911	3	0.5564	1.49405600	7.51601600	60.00514500	#	H	TIP4P
6147	1912	2	-1.1128	22.91707100	17.73369600	48.42899400	#	O	TIP4P
6148	1912	3	0.5564	23.28254400	17.03241100	47.88967900	#	H	TIP4P
6149	1912	3	0.5564	23.61153500	17.94276500	49.05368700	#	H	TIP4P
6150	1913	2	-1.1128	22.51327100	7.99830700	67.51068100	#	O	TIP4P
6151	1913	3	0.5564	22.80674100	8.83697300	67.86669700	#	H	TIP4P
6152	1913	3	0.5564	23.00461100	7.34247800	68.00535800	#	H	TIP4P
6153	1914	2	-1.1128	8.51037300	19.28695100	36.51450700	#	O	TIP4P
6154	1914	3	0.5564	9.44440600	19.12627600	36.38035000	#	H	TIP4P
6155	1914	3	0.5564	8.13070000	18.41551500	36.62711000	#	H	TIP4P
6156	1915	2	-1.1128	23.18447400	18.91738400	17.06850700	#	O	TIP4P
6157	1915	3	0.5564	23.75260900	18.66935800	17.79784800	#	H	TIP4P
6158	1915	3	0.5564	23.46979300	18.36251700	16.34259600	#	H	TIP4P
6159	1916	2	-1.1128	17.51958400	2.06902700	44.97617200	#	O	TIP4P
6160	1916	3	0.5564	16.75274500	1.49627400	44.98819000	#	H	TIP4P
6161	1916	3	0.5564	18.26629600	1.47019600	44.96875600	#	H	TIP4P
6162	1917	2	-1.1128	2.11287100	4.81299200	15.04187300	#	O	TIP4P
6163	1917	3	0.5564	2.74380600	4.72328200	14.32765700	#	H	TIP4P
6164	1917	3	0.5564	2.62285500	5.16946100	15.76924900	#	H	TIP4P
6165	1918	2	-1.1128	2.08398700	8.57834300	46.01424900	#	O	TIP4P
6166	1918	3	0.5564	1.49690500	7.84626200	45.82550700	#	H	TIP4P
6167	1918	3	0.5564	1.51033300	9.26392400	46.35649500	#	H	TIP4P
6168	1919	2	-1.1128	9.61275000	15.68798400	17.19423200	#	O	TIP4P
6169	1919	3	0.5564	9.77327900	14.98376400	16.56611000	#	H	TIP4P
6170	1919	3	0.5564	10.48076600	15.91387900	17.52852500	#	H	TIP4P
6171	1920	2	-1.1128	22.65226500	23.83955900	31.11866500	#	O	TIP4P
6172	1920	3	0.5564	22.47224500	22.90228100	31.19170900	#	H	TIP4P
6173	1920	3	0.5564	21.79241900	24.23969900	30.98911400	#	H	TIP4P
6174	1921	2	-1.1128	26.05458600	4.80617800	52.19346600	#	O	TIP4P
6175	1921	3	0.5564	25.78659900	4.14273000	52.82927300	#	H	TIP4P
6176	1921	3	0.5564	26.93607600	4.54295400	51.92904100	#	H	TIP4P
6177	1922	2	-1.1128	15.33975700	33.30897400	17.74757400	#	O	TIP4P
6178	1922	3	0.5564	14.39112400	33.20696200	17.82451100	#	H	TIP4P
6179	1922	3	0.5564	15.50612100	33.30284700	16.80496200	#	H	TIP4P
6180	1923	2	-1.1128	26.81034400	5.72321200	16.00224500	#	O	TIP4P
6181	1923	3	0.5564	27.10665100	5.50663200	16.88628500	#	H	TIP4P
6182	1923	3	0.5564	26.30255400	6.52748100	16.10963300	#	H	TIP4P
6183	1924	2	-1.1128	8.43792300	31.37137500	46.30342400	#	O	TIP4P
6184	1924	3	0.5564	8.30448400	30.87394100	47.11026100	#	H	TIP4P
6185	1924	3	0.5564	9.38706200	31.37777600	46.17963300	#	H	TIP4P
6186	1925	2	-1.1128	26.67387300	19.98690400	44.78132200	#	O	TIP4P
6187	1925	3	0.5564	26.73162200	20.14058700	43.83830600	#	H	TIP4P
6188	1925	3	0.5564	27.43649200	19.44481700	44.98327600	#	H	TIP4P
6189	1926	2	-1.1128	11.30181100	32.30011500	36.00174900	#	O	TIP4P
6190	1926	3	0.5564	11.67718600	31.52840800	36.42576900	#	H	TIP4P
6191	1926	3	0.5564	11.76731000	33.03927100	36.39314600	#	H	TIP4P
6192	1927	2	-1.1128	28.56204300	25.26398000	17.46580900	#	O	TIP4P
6193	1927	3	0.5564	27.75185900	25.77004500	17.40472800	#	H	TIP4P
6194	1927	3	0.5564	29.25754000	25.92140900	17.44841800	#	H	TIP4P
6195	1928	2	-1.1128	30.69310900	28.72092300	13.33733600	#	O	TIP4P
6196	1928	3	0.5564	29.95414500	28.22657400	13.69199600	#	H	TIP4P
6197	1928	3	0.5564	31.14877600	29.05788600	14.10873300	#	H	TIP4P
6198	1929	2	-1.1128	22.75082900	10.00100000	55.25307900	#	O	TIP4P
6199	1929	3	0.5564	22.08823400	9.77011600	55.90414900	#	H	TIP4P
6200	1929	3	0.5564	23.51147000	9.46842100	55.48549200	#	H	TIP4P
6201	1930	2	-1.1128	30.72098400	15.43797800	13.70381700	#	O	TIP4P
6202	1930	3	0.5564	31.09139300	15.90797800	12.95673600	#	H	TIP4P
6203	1930	3	0.5564	31.15016800	15.82437800	14.46718400	#	H	TIP4P
6204	1931	2	-1.1128	23.57851800	10.26869500	44.39346300	#	O	TIP4P
6205	1931	3	0.5564	23.34100500	10.09666800	45.30463100	#	H	TIP4P
6206	1931	3	0.5564	24.52232000	10.11309300	44.35799500	#	H	TIP4P
6207	1932	2	-1.1128	4.63778600	19.33115900	25.48475800	#	O	TIP4P
6208	1932	3	0.5564	4.44798900	18.76948200	24.73327400	#	H	TIP4P
6209	1932	3	0.5564	5.11585600	20.07339300	25.11493500	#	H	TIP4P
6210	1933	2	-1.1128	19.77307700	21.18526800	44.63179400	#	O	TIP4P
6211	1933	3	0.5564	20.15680700	20.32876200	44.44370000	#	H	TIP4P
6212	1933	3	0.5564	19.82869800	21.66045400	43.80273700	#	H	TIP4P
6213	1934	2	-1.1128	13.77614200	32.14868500	14.41266600	#	O	TIP4P
6214	1934	3	0.5564	13.77193100	31.78981000	15.30003400	#	H	TIP4P
6215	1934	3	0.5564	13.37294700	31.46635400	13.87592600	#	H	TIP4P
6216	1935	2	-1.1128	1.49470000	7.26568700	20.45312000	#	O	TIP4P
6217	1935	3	0.5564	2.38754100	7.59617300	20.35388900	#	H	TIP4P
6218	1935	3	0.5564	1.49971100	6.80977500	21.29475600	#	H	TIP4P
6219	1936	2	-1.1128	31.21647200	20.94191000	27.50687700	#	O	TIP4P
6220	1936	3	0.5564	31.10288800	19.99574000	27.59683700	#	H	TIP4P
6221	1936	3	0.5564	30.32493400	21.28962500	27.48484500	#	H	TIP4P
6222	1937	2	-1.1128	10.24244500	14.87045600	63.40143100	#	O	TIP4P
6223	1937	3	0.5564	10.52521000	14.35293300	64.15538500	#	H	TIP4P
6224	1937	3	0.5564	9.43610600	15.29676700	63.69178700	#	H	TIP4P
6225	1938	2	-1.1128	27.33304700	19.80739300	49.62746900	#	O	TIP4P
6226	1938	3	0.5564	27.35863300	19.45121600	50.51556600	#	H	TIP4P
6227	1938	3	0.5564	27.81413500	19.17025200	49.09941900	#	H	TIP4P
6228	1939	2	-1.1128	18.94579500	30.62371200	70.70880500	#	O	TIP4P
6229	1939	3	0.5564	18.04499400	30.94146200	70.77064300	#	H	TIP4P
6230	1939	3	0.5564	18.86772400	29.67074700	70.75347200	#	H	TIP4P
6231	1940	2	-1.1128	21.72791800	20.12451900	31.26512300	#	O	TIP4P
6232	1940	3	0.5564	21.88854400	19.68042500	32.09771600	#	H	TIP4P
6233	1940	3	0.5564	20.90925100	19.74561100	30.94505400	#	H	TIP4P
6234	1941	2	-1.1128	10.14906300	24.69446600	25.50837600	#	O	TIP4P
6235	1941	3	0.5564	10.21256800	23.73945300	25.49620100	#	H	TIP4P
6236	1941	3	0.5564	9.48981100	24.89961600	24.84540500	#	H	TIP4P
6237	1942	2	-1.1128	20.86813600	33.30397700	20.54992800	#	O	TIP4P
6238	1942	3	0.5564	21.74363000	33.30395000	20.16296400	#	H	TIP4P
6239	1942	3	0.5564	20.37786400	32.66360500	20.03438000	#	H	TIP4P
6240	1943	2	-1.1128	29.75492800	7.57088300	17.17569500	#	O	TIP4P
6241	1943	3	0.5564	28.87876600	7.95610700	17.16251500	#	H	TIP4P
6242	1943	3	0.5564	29.60172800	6.62602700	17.17279000	#	H	TIP4P
6243	1944	2	-1.1128	25.71366800	12.84288100	65.41904100	#	O	TIP4P
6244	1944	3	0.5564	25.62998400	13.58257400	66.02077500	#	H	TIP4P
6245	1944	3	0.5564	26.57227900	12.96016700	65.01251600	#	H	TIP4P
6246	1945	2	-1.1128	25.76477300	18.78986900	47.19714200	#	O	TIP4P
6247	1945	3	0.5564	25.91581400	17.91549600	47.55615600	#	H	TIP4P
6248	1945	3	0.5564	25.05181800	18.67171400	46.56947400	#	H	TIP4P
6249	1946	2	-1.1128	17.70798700	25.17655100	15.36286900	#	O	TIP4P
6250	1946	3	0.5564	17.96664200	24.91464000	16.24645900	#	H	TIP4P
6251	1946	3	0.5564	18.43735400	24.90086500	14.80766300	#	H	TIP4P
6252	1947	2	-1.1128	14.18605500	8.44495800	23.19769900	#	O	TIP4P
6253	1947	3	0.5564	13.36618700	8.92405000	23.07720300	#	H	TIP4P
6254	1947	3	0.5564	13.92159400	7.52663900	23.25230800	#	H	TIP4P
6255	1948	2	-1.1128	30.90895700	30.64761800	20.01885700	#	O	TIP4P
6256	1948	3	0.5564	29.95215300	30.65301700	20.04585500	#	H	TIP4P
6257	1948	3	0.5564	31.15499100	29.80400300	20.39834400	#	H	TIP4P
6258	1949	2	-1.1128	8.07321700	25.27793500	61.10152800	#	O	TIP4P
6259	1949	3	0.5564	8.91787300	24.86177100	60.92949100	#	H	TIP4P
6260	1949	3	0.5564	7.46538600	24.54783100	61.21866100	#	H	TIP4P
6261	1950	2	-1.1128	27.49256700	16.80986200	35.62252100	#	O	TIP4P
6262	1950	3	0.5564	28.38004900	16.46152200	35.53726800	#	H	TIP4P
6263	1950	3	0.5564	27.57327400	17.51877200	36.26061400	#	H	TIP4P
6264	1951	2	-1.1128	13.66285900	27.98459800	43.18003500	#	O	TIP4P
6265	1951	3	0.5564	12.75158000	27.69549600	43.22719200	#	H	TIP4P
6266	1951	3	0.5564	13.60837400	28.93564700	43.08640100	#	H	TIP4P
6267	1952	2	-1.1128	10.87277800	5.33120200	67.39079800	#	O	TIP4P
6268	1952	3	0.5564	10.25467000	5.13632800	66.68638400	#	H	TIP4P
6269	1952	3	0.5564	10.98353000	6.28136700	67.35686400	#	H	TIP4P
6270	1953	2	-1.1128	12.20806900	2.14896700	33.67053300	#	O	TIP4P
6271	1953	3	0.5564	12.00363200	2.45432400	32.78668100	#	H	TIP4P
6272	1953	3	0.5564	11.53149400	1.49967000	33.86260600	#	H	TIP4P
6273	1954	2	-1.1128	14.65705800	21.49014300	69.46926800	#	O	TIP4P
6274	1954	3	0.5564	13.90904700	20.89435300	69.42747000	#	H	TIP4P
6275	1954	3	0.5564	14.29120100	22.34968200	69.26052800	#	H	TIP4P
6276	1955	2	-1.1128	3.23821000	14.93649800	11.10890100	#	O	TIP4P
6277	1955	3	0.5564	3.45301800	14.00436100	11.14370700	#	H	TIP4P
6278	1955	3	0.5564	4.07004500	15.36728500	10.91216700	#	H	TIP4P
6279	1956	2	-1.1128	8.99692200	3.25136700	27.53162400	#	O	TIP4P
6280	1956	3	0.5564	8.53887100	3.77000800	28.19301000	#	H	TIP4P
6281	1956	3	0.5564	9.23064800	3.88265900	26.85112800	#	H	TIP4P
6282	1957	2	-1.1128	22.92615100	1.53592600	40.18648100	#	O	TIP4P
6283	1957	3	0.5564	23.41708100	1.48067200	39.36662400	#	H	TIP4P
6284	1957	3	0.5564	22.00777200	1.49825200	39.91928500	#	H	TIP4P
6285	1958	2	-1.1128	19.93254500	9.06279000	62.99005100	#	O	TIP4P
6286	1958	3	0.5564	19.48602900	9.88343500	62.78173500	#	H	TIP4P
6287	1958	3	0.5564	20.86119700	9.29376400	63.01215800	#	H	TIP4P
6288	1959	2	-1.1128	16.05758200	4.09194800	28.98583700	#	O	TIP4P
6289	1959	3	0.5564	16.80646100	3.54246400	28.75458100	#	H	TIP4P
6290	1959	3	0.5564	16.40420400	4.98417400	28.98164100	#	H	TIP4P
6291	1960	2	-1.1128	15.63214400	10.61896200	25.42997400	#	O	TIP4P
6292	1960	3	0.5564	14.97824300	11.04737200	24.87760600	#	H	TIP4P
6293	1960	3	0.5564	15.13203400	9.98993600	25.95002000	#	H	TIP4P
6294	1961	2	-1.1128	31.15005200	24.18129900	67.34195600	#	O	TIP4P
6295	1961	3	0.5564	30.71078900	24.35575200	66.50958200	#	H	TIP4P
6296	1961	3	0.5564	31.15303400	25.02541700	67.79327300	#	H	TIP4P
6297	1962	2	-1.1128	22.21893800	23.87564900	43.57569300	#	O	TIP4P
6298	1962	3	0.5564	22.81057000	24.53465200	43.93889700	#	H	TIP4P
6299	1962	3	0.5564	21.54763500	23.75919700	44.24801900	#	H	TIP4P
6300	1963	2	-1.1128	22.27530500	27.93808500	19.76086700	#	O	TIP4P
6301	1963	3	0.5564	23.13364300	27.51571300	19.72785000	#	H	TIP4P
6302	1963	3	0.5564	21.65033000	27.21330000	19.74281400	#	H	TIP4P
6303	1964	2	-1.1128	11.66917200	20.44722300	57.56897400	#	O	TIP4P
6304	1964	3	0.5564	11.35118900	20.79887600	58.40051400	#	H	TIP4P
6305	1964	3	0.5564	11.02247400	19.78483900	57.32553900	#	H	TIP4P
6306	1965	2	-1.1128	11.17124500	23.37328500	19.40050200	#	O	TIP4P
6307	1965	3	0.5564	11.64323500	23.63283000	20.19176300	#	H	TIP4P
6308	1965	3	0.5564	10.34873000	23.00399900	19.72195100	#	H	TIP4P
6309	1966	2	-1.1128	18.32721800	22.13313700	35.28357400	#	O	TIP4P
6310	1966	3	0.5564	17.95605200	22.20712500	36.16277400	#	H	TIP4P
6311	1966	3	0.5564	18.15877600	22.98438500	34.87955100	#	H	TIP4P
6312	1967	2	-1.1128	20.94012700	7.00171700	43.94547800	#	O	TIP4P
6313	1967	3	0.5564	20.31046800	7.51103300	43.43522400	#	H	TIP4P
6314	1967	3	0.5564	20.51425100	6.15438500	44.07543700	#	H	TIP4P
6315	1968	2	-1.1128	1.50933600	14.43302000	21.89644100	#	O	TIP4P
6316	1968	3	0.5564	1.50139100	13.50784800	22.14184800	#	H	TIP4P
6317	1968	3	0.5564	1.97484200	14.45554200	21.06036100	#	H	TIP4P
6318	1969	2	-1.1128	5.48218800	33.11358200	55.89972600	#	O	TIP4P
6319	1969	3	0.5564	4.60562700	32.72909400	55.90616000	#	H	TIP4P
6320	1969	3	0.5564	5.64948800	33.31422000	54.97886500	#	H	TIP4P
6321	1970	2	-1.1128	9.27850600	18.05785900	43.10339300	#	O	TIP4P
6322	1970	3	0.5564	9.21036700	17.28056600	42.54895100	#	H	TIP4P
6323	1970	3	0.5564	9.82115700	18.66484100	42.60007000	#	H	TIP4P
6324	1971	2	-1.1128	5.53932200	15.75228500	68.76595200	#	O	TIP4P
6325	1971	3	0.5564	6.48924300	15.78866800	68.65388900	#	H	TIP4P
6326	1971	3	0.5564	5.18902400	16.18343800	67.98644600	#	H	TIP4P
6327	1972	2	-1.1128	23.00302600	28.02968200	42.55606300	#	O	TIP4P
6328	1972	3	0.5564	22.07153000	28.21286600	42.43363000	#	H	TIP4P
6329	1972	3	0.5564	23.02622700	27.15905400	42.95317700	#	H	TIP4P
6330	1973	2	-1.1128	13.21688000	16.31948000	22.96697300	#	O	TIP4P
6331	1973	3	0.5564	12.34130200	15.96882200	22.80377300	#	H	TIP4P
6332	1973	3	0.5564	13.22328000	16.52333500	23.90219200	#	H	TIP4P
6333	1974	2	-1.1128	30.58985000	2.11004300	23.39311500	#	O	TIP4P
6334	1974	3	0.5564	31.16047900	2.87845700	23.38067900	#	H	TIP4P
6335	1974	3	0.5564	31.02725300	1.49581900	23.98272400	#	H	TIP4P
6336	1975	2	-1.1128	11.38729400	22.67694200	66.04200000	#	O	TIP4P
6337	1975	3	0.5564	11.52639700	23.44396600	65.48652100	#	H	TIP4P
6338	1975	3	0.5564	10.47043900	22.73790500	66.31012600	#	H	TIP4P
6339	1976	2	-1.1128	30.53285900	13.22734100	64.73079100	#	O	TIP4P
6340	1976	3	0.5564	29.82073200	13.17641500	64.09320800	#	H	TIP4P
6341	1976	3	0.5564	31.16101200	13.83533800	64.34092600	#	H	TIP4P
6342	1977	2	-1.1128	2.31180600	20.49542400	24.59323600	#	O	TIP4P
6343	1977	3	0.5564	1.45361800	20.69120100	24.96928900	#	H	TIP4P
6344	1977	3	0.5564	2.74801100	21.34548200	24.53529000	#	H	TIP4P
6345	1978	2	-1.1128	8.73092300	2.10789100	62.27496000	#	O	TIP4P
6346	1978	3	0.5564	9.04175900	1.49521000	61.60845000	#	H	TIP4P
6347	1978	3	0.5564	9.43929100	2.74549700	62.36386000	#	H	TIP4P
6348	1979	2	-1.1128	19.87585600	21.74838600	24.54981200	#	O	TIP4P
6349	1979	3	0.5564	20.73463800	21.41662200	24.28778400	#	H	TIP4P
6350	1979	3	0.5564	19.98043300	22.69973900	24.56469600	#	H	TIP4P
6351	1980	2	-1.1128	7.27436500	7.93728700	25.52888500	#	O	TIP4P
6352	1980	3	0.5564	7.37203200	8.83865700	25.83584700	#	H	TIP4P
6353	1980	3	0.5564	8.02477600	7.79784100	24.95124400	#	H	TIP4P
6354	1981	2	-1.1128	8.35302300	24.95248800	68.50413700	#	O	TIP4P
6355	1981	3	0.5564	8.98710200	25.64623200	68.32276700	#	H	TIP4P
6356	1981	3	0.5564	8.77185500	24.15433700	68.18200800	#	H	TIP4P
6357	1982	2	-1.1128	10.23650700	1.50004800	29.80406000	#	O	TIP4P
6358	1982	3	0.5564	10.49809900	2.41154700	29.67379300	#	H	TIP4P
6359	1982	3	0.5564	9.29422500	1.49441100	29.63581900	#	H	TIP4P
6360	1983	2	-1.1128	18.95267700	32.56095000	13.36217900	#	O	TIP4P
6361	1983	3	0.5564	18.07439800	32.91483600	13.22209600	#	H	TIP4P
6362	1983	3	0.5564	18.83232500	31.61135700	13.35768300	#	H	TIP4P
6363	1984	2	-1.1128	23.88622600	14.40618500	50.27082900	#	O	TIP4P
6364	1984	3	0.5564	23.92573600	15.30395800	49.94117200	#	H	TIP4P
6365	1984	3	0.5564	22.95067500	14.21048600	50.32257600	#	H	TIP4P
6366	1985	2	-1.1128	6.44902400	33.32036600	44.28883000	#	O	TIP4P
6367	1985	3	0.5564	5.49312300	33.29586600	44.33224600	#	H	TIP4P
6368	1985	3	0.5564	6.73305200	33.22598000	45.19803300	#	H	TIP4P
6369	1986	2	-1.1128	21.10879500	13.01539500	20.86349100	#	O	TIP4P
6370	1986	3	0.5564	20.69746600	13.80509200	20.51218300	#	H	TIP4P
6371	1986	3	0.5564	21.75171500	12.76433900	20.20027500	#	H	TIP4P
6372	1987	2	-1.1128	29.21953400	2.18128100	35.41990800	#	O	TIP4P
6373	1987	3	0.5564	29.78868900	2.94916900	35.36850000	#	H	TIP4P
6374	1987	3	0.5564	29.82183900	1.43854700	35.46239800	#	H	TIP4P
6375	1988	2	-1.1128	22.65640700	13.09822300	30.97893900	#	O	TIP4P
6376	1988	3	0.5564	21.88794900	13.63082500	30.77390500	#	H	TIP4P
6377	1988	3	0.5564	23.39372500	13.70493500	30.91189000	#	H	TIP4P
6378	1989	2	-1.1128	7.16659400	28.56825300	11.00166700	#	O	TIP4P
6379	1989	3	0.5564	6.36803800	28.06761700	10.83462600	#	H	TIP4P
6380	1989	3	0.5564	7.83684500	27.90418500	11.16294000	#	H	TIP4P
6381	1990	2	-1.1128	9.81822000	11.72131700	63.31096600	#	O	TIP4P
6382	1990	3	0.5564	9.83633500	10.87204000	62.86979400	#	H	TIP4P
6383	1990	3	0.5564	9.06180700	12.17119600	62.93456200	#	H	TIP4P
6384	1991	2	-1.1128	30.57084100	2.26157300	43.48661100	#	O	TIP4P
6385	1991	3	0.5564	31.15133400	1.51856300	43.65152400	#	H	TIP4P
6386	1991	3	0.5564	31.15855900	3.01345000	43.41245200	#	H	TIP4P
6387	1992	2	-1.1128	28.71991100	14.90016100	65.94572700	#	O	TIP4P
6388	1992	3	0.5564	27.82432300	15.23643100	65.91292100	#	H	TIP4P
6389	1992	3	0.5564	29.26165500	15.63076000	65.64744900	#	H	TIP4P
6390	1993	2	-1.1128	18.84847500	13.73330700	56.10451800	#	O	TIP4P
6391	1993	3	0.5564	19.50909100	14.32613100	55.74622000	#	H	TIP4P
6392	1993	3	0.5564	18.14622600	14.31008800	56.40518600	#	H	TIP4P
6393	1994	2	-1.1128	21.35843600	20.46224800	67.06850600	#	O	TIP4P
6394	1994	3	0.5564	22.22269400	20.14077900	67.32530600	#	H	TIP4P
6395	1994	3	0.5564	20.92993700	19.70543600	66.66868600	#	H	TIP4P
6396	1995	2	-1.1128	25.82000100	9.25569500	27.47956500	#	O	TIP4P
6397	1995	3	0.5564	26.04310100	8.61016500	26.80893200	#	H	TIP4P
6398	1995	3	0.5564	26.13040900	8.86849400	28.29807200	#	H	TIP4P
6399	1996	2	-1.1128	1.48264800	2.12845500	54.89756300	#	O	TIP4P
6400	1996	3	0.5564	1.49524500	1.60944000	55.70173800	#	H	TIP4P
6401	1996	3	0.5564	1.64367700	1.49351800	54.19959800	#	H	TIP4P
6402	1997	2	-1.1128	27.45939300	11.80905100	59.22259100	#	O	TIP4P
6403	1997	3	0.5564	28.06260200	12.07859000	59.91520900	#	H	TIP4P
6404	1997	3	0.5564	26.70948500	11.43874000	59.68814400	#	H	TIP4P
6405	1998	2	-1.1128	27.77862600	4.87297300	66.27663300	#	O	TIP4P
6406	1998	3	0.5564	28.66811900	5.12380400	66.52586700	#	H	TIP4P
6407	1998	3	0.5564	27.78127000	3.91630200	66.30831200	#	H	TIP4P
6408	1999	2	-1.1128	21.84778700	12.88862700	46.03377900	#	O	TIP4P
6409	1999	3	0.5564	22.50047300	12.40482400	46.53991000	#	H	TIP4P
6410	1999	3	0.5564	21.77989400	12.40848100	45.20850200	#	H	TIP4P
6411	2000	2	-1.1128	21.88506700	20.17166300	50.60907400	#	O	TIP4P
6412	2000	3	0.5564	21.72264700	19.84404500	49.72447400	#	H	TIP4P
6413	2000	3	0.5564	22.77550300	19.88468300	50.81155000	#	H	TIP4P
6414	2001	2	-1.1128	30.62139900	23.09993000	46.21652400	#	O	TIP4P
6415	2001	3	0.5564	31.17303200	23.13919700	46.99779900	#	H	TIP4P
6416	2001	3	0.5564	31.14992000	23.50509000	45.52896100	#	H	TIP4P
6417	2002	4	0.85	13.81228800	17.87454600	51.97078700	#	Na	sodium
6418	2003	4	0.85	6.26173000	29.35416100	46.07650600	#	Na	sodium
6419	2004	4	0.85	7.92237800	3.28822800	68.20154500	#	Na	sodium
6420	2005	4	0.85	19.76670000	32.09874300	44.17232300	#	Na	sodium
6421	2006	4	0.85	10.51862900	30.91599000	41.56452600	#	Na	sodium
6422	2007	4	0.85	21.42621500	18.14734900	62.79942800	#	Na	sodium
6423	2008	4	0.85	16.14575200	20.73458500	14.86193900	#	Na	sodium
6424	2009	4	0.85	12.41710200	30.97805300	54.60519300	#	Na	sodium
6425	2010	4	0.85	4.26208200	23.32797000	28.59360500	#	Na	sodium
6426	2011	4	0.85	27.39068700	7.00588500	37.24023200	#	Na	sodium
6427	2012	4	0.85	23.14393100	12.12100000	22.48240700	#	Na	sodium
6428	2013	4	0.85	29.03156600	14.14493000	36.86696900	#	Na	sodium
6429	2014	4	0.85	13.02036600	30.71509700	39.04136700	#	Na	sodium
6430	2015	4	0.85	3.29990700	26.36944000	32.37008900	#	Na	sodium
6431	2016	4	0.85	27.57865800	28.17795500	44.15517800	#	Na	sodium
6432	2017	4	0.85	29.83740300	21.96115400	18.12959000	#	Na	sodium
6433	2018	4	0.85	18.98776700	30.02635500	15.59929100	#	Na	sodium
6434	2019	4	0.85	25.30619900	16.84475800	42.82739600	#	Na	sodium
6435	2020	4	0.85	11.07276900	23.00120900	33.62356700	#	Na	sodium
6436	2021	4	0.85	4.98809100	11.15788500	58.56035700	#	Na	sodium
6437	2022	4	0.85	15.41475400	14.77105600	34.79699800	#	Na	sodium
6438	2023	4	0.85	15.80204000	10.95740500	58.21803700	#	Na	sodium
6439	2024	5	-0.85	29.71088900	13.34452500	56.79189400	#	Cl	chlorine
6440	2025	5	-0.85	31.04585100	25.90121800	35.38549400	#	Cl	chlorine
6441	2026	5	-0.85	12.25298900	10.68299700	24.87281000	#	Cl	chlorine
6442	2027	5	-0.85	9.69184500	5.59468300	44.20564900	#	Cl	chlorine
6443	2028	5	-0.85	5.85379700	10.20735300	48.97636200	#	Cl	chlorine
6444	2029	5	-0.85	17.81515300	27.87642100	67.05310000	#	Cl	chlorine
6445	2030	5	-0.85	7.62639300	18.86700000	40.95668600	#	Cl	chlorine
6446	2031	5	-0.85	1.89366500	2.87206500	17.09297100	#	Cl	chlorine
6447	2032	5	-0.85	26.45557600	15.28626800	16.89208700	#	Cl	chlorine
6448	2033	5	-0.85	29.73113200	4.37519200	28.85161300	#	Cl	chlorine
6449	2034	5	-0.85	5.45341900	30.22806300	67.05408400	#	Cl	chlorine
6450	2035	5	-0.85	19.14165700	4.91684100	29.22245800	#	Cl	chlorine
6451	2036	5	-0.85	15.56059300	24.22942300	51.73843400	#	Cl	chlorine
6452	2037	5	-0.85	28.62643400	19.30890200	26.61876900	#	Cl	chlorine
6453	2038	5	-0.85	26.55017800	4.93515200	60.91515200	#	Cl	chlorine
6454	2039	5	-0.85	6.16107300	31.85592000	63.37979400	#	Cl	chlorine
6455	2040	5	-0.85	9.39100800	30.54273100	25.14150900	#	Cl	chlorine
6456	2041	5	-0.85	8.52134400	15.90872700	58.80180200	#	Cl	chlorine
6457	2042	5	-0.85	17.93421000	25.62058200	65.48499900	#	Cl	chlorine
6458	2043	5	-0.85	13.78769900	22.65900300	60.99613700	#	Cl	chlorine
6459	2044	5	-0.85	9.62951500	3.17679900	55.99184500	#	Cl	chlorine
6460	2045	5	-0.85	2.20450000	5.87390500	28.59901400	#	Cl	chlorine
6461	2046	6	0.4179218312349160	0.00190900	1.42514700	75.00000000	#	B	HBbn
6462	2046	6	0.4127551626079970	2.51819200	1.43322400	75.00000000	#	B	HBbn
6463	2046	6	0.4011436076752320	1.25798500	3.60737600	75.00000000	#	B	HBbn
6464	2046	6	0.3858344809217600	-0.00019400	5.78387400	75.00000000	#	B	HBbn
6465	2046	6	0.4058116110482110	5.03206900	1.44947700	75.00000000	#	B	HBbn
6466	2046	6	0.3923564430811710	3.77258400	3.62171800	75.00000000	#	B	HBbn
6467	2046	6	0.3753930305578870	2.51174800	5.79138300	75.00000000	#	B	HBbn
6468	2046	6	0.3558312823805160	1.25251500	7.96525000	75.00000000	#	B	HBbn
6469	2046	6	0.3401807458058820	-0.00302100	10.14250300	75.00000000	#	B	HBbn
6470	2046	6	0.4017457304507360	7.54314500	1.47102000	75.00000000	#	B	HBbn
6471	2046	6	0.3856492919581600	6.28686100	3.64466000	75.00000000	#	B	HBbn
6472	2046	6	0.3599592374909300	5.02639700	5.81080500	75.00000000	#	B	HBbn
6473	2046	6	0.3276432460551170	3.76251000	7.97151000	75.00000000	#	B	HBbn
6474	2046	6	0.3064199700814250	2.50298000	10.14315800	74.99999900	#	B	HBbn
6475	2046	6	0.3067277562080780	1.24979600	12.31890600	74.99999900	#	B	HBbn
6476	2046	6	0.3218025516752070	0.00263700	14.48978700	74.99999900	#	B	HBbn
6477	2046	6	0.4015429537084700	10.05235700	1.49262500	75.00000000	#	B	HBbn
6478	2046	6	0.3878162097473240	8.79828400	3.66978700	75.00000000	#	B	HBbn
6479	2046	6	0.3524316682219150	7.54168900	5.84162300	75.00000000	#	B	HBbn
6480	2046	6	0.2941602537760590	6.27874700	7.99946200	75.00000000	#	B	HBbn
6481	2046	6	0.2349375474194210	5.00796600	10.14452900	75.00000000	#	B	HBbn
6482	2046	6	0.2274094608627970	3.74980500	12.31734000	74.99999900	#	B	HBbn
6483	2046	6	0.2744815985993210	2.52273400	14.48675200	74.99999900	#	B	HBbn
6484	2046	6	0.3270049131470660	1.27545700	16.65407300	74.99999900	#	B	HBbn
6485	2046	6	0.3679249493637710	0.01110100	18.82058700	74.99999900	#	B	HBbn
6486	2046	6	0.3988949584440330	12.56066100	1.51059400	75.00000000	#	B	HBbn
6487	2046	6	0.3873216827942460	11.30563900	3.69432100	75.00000000	#	B	HBbn
6488	2046	6	0.3557479990756570	10.05028300	5.87609400	75.00000000	#	B	HBbn
6489	2046	6	0.2846333679028140	8.79222100	8.05186400	75.00000000	#	B	HBbn
6490	2046	6	0.1562275823009380	7.52236100	10.19811600	75.00000000	#	B	HBbn
6491	2046	6	0.1001670550909110	6.23292100	12.30670100	75.00000000	#	B	HBbn
6492	2046	6	0.1464648132785260	5.04519600	14.47417000	74.99999900	#	B	HBbn
6493	2046	6	0.2704224427407470	3.81393400	16.64251700	74.99999900	#	B	HBbn
6494	2046	6	0.3441121316253240	2.55125700	18.81349500	74.99999900	#	B	HBbn
6495	2046	6	0.3866373112890990	1.28242400	20.98392500	74.99999900	#	B	HBbn
6496	2046	6	0.4166917213035170	0.01154200	23.15473600	74.99999900	#	B	HBbn
6497	2046	6	0.3973668908505290	15.06872500	1.51830600	75.00000000	#	B	HBbn
6498	2046	6	0.3840979464223040	13.81323900	3.71006900	75.00000000	#	B	HBbn
6499	2046	6	0.3485933941718810	12.55564700	5.90189200	75.00000000	#	B	HBbn
6500	2046	6	0.2817034508921140	11.28849700	8.10068100	75.00000000	#	B	HBbn
6501	2046	6	0.1454907607129990	10.00328600	10.31879100	75.00000100	#	B	HBbn
6502	2046	6	0.0124485262822199	8.64467700	12.55535600	75.00000000	#	B	HBbn
6503	2046	6	0.0073687619734146	7.64709500	14.27257700	75.00000000	#	B	HBbn
6504	2046	6	0.1375302217162370	6.38201900	16.56378900	75.00000000	#	B	HBbn
6505	2046	6	0.2756398055532330	5.09887600	18.78154800	75.00000000	#	B	HBbn
6506	2046	6	0.3490672296206450	3.82443100	20.97176300	75.00000000	#	B	HBbn
6507	2046	6	0.3967890805925920	2.55118400	23.15027500	74.99999900	#	B	HBbn
6508	2046	6	0.4273985402102030	1.27794100	25.32637900	74.99999900	#	B	HBbn
6509	2046	6	0.4422721107978890	0.00731600	27.50437800	74.99999900	#	B	HBbn
6510	2046	6	0.3990129000186160	17.57628000	1.51017000	75.00000000	#	B	HBbn
6511	2046	6	0.3841569172095960	16.32415100	3.71003000	75.00000000	#	B	HBbn
6512	2046	6	0.3444530241588790	15.06962800	5.90485300	75.00000000	#	B	HBbn
6513	2046	6	0.2798417327915660	13.80848200	8.09555200	75.00000000	#	B	HBbn
6514	2046	6	0.1725531792037790	12.53822700	10.28845400	75.00000000	#	B	HBbn
6515	2046	6	0.0900923616409832	11.26150000	12.49704700	75.00000000	#	B	HBbn
6516	2046	6	0.0877423240386509	8.89756100	16.56399800	75.00000000	#	B	HBbn
6517	2046	6	0.1706128333868410	7.62011000	18.77255500	75.00000000	#	B	HBbn
6518	2046	6	0.2817650081174450	6.35486500	20.96619400	75.00000000	#	B	HBbn
6519	2046	6	0.3544299502509280	5.08601300	23.14823500	75.00000000	#	B	HBbn
6520	2046	6	0.4046834067755530	3.81187700	25.32655700	75.00000000	#	B	HBbn
6521	2046	6	0.4314463157414040	2.53564200	27.50611700	75.00000000	#	B	HBbn
6522	2046	6	0.4402872782466780	1.26665800	29.68658400	75.00000000	#	B	HBbn
6523	2046	6	0.4381529495768080	0.00313500	31.86670600	74.99999900	#	B	HBbn
6524	2046	6	0.4017772849948130	20.08389300	1.49192100	75.00000000	#	B	HBbn
6525	2046	6	0.3874629023111820	18.83203300	3.69367900	75.00000000	#	B	HBbn
6526	2046	6	0.3485421826987060	17.58354700	5.90178900	75.00000000	#	B	HBbn
6527	2046	6	0.2797889694555680	16.33098700	8.09530500	75.00000000	#	B	HBbn
6528	2046	6	0.1802824906398450	15.06975400	10.27833500	75.00000000	#	B	HBbn
6529	2046	6	0.1140251901044440	13.80144300	12.46332100	75.00000000	#	B	HBbn
6530	2046	6	0.1148249167461360	10.13491200	18.78073400	75.00000000	#	B	HBbn
6531	2046	6	0.1832568943848170	8.87704500	20.97054400	75.00000000	#	B	HBbn
6532	2046	6	0.2884980236208470	7.61867300	23.15026200	75.00000000	#	B	HBbn
6533	2046	6	0.3647431132880620	6.34646700	25.32782200	75.00000000	#	B	HBbn
6534	2046	6	0.4098050713805920	5.06170300	27.50904800	75.00000000	#	B	HBbn
6535	2046	6	0.4290160985598600	3.78870800	29.69126400	75.00000000	#	B	HBbn
6536	2046	6	0.4323324294136020	2.52290900	31.87158100	75.00000000	#	B	HBbn
6537	2046	6	0.4273912981836930	1.26136000	34.04922000	75.00000000	#	B	HBbn
6538	2046	6	0.4021843903421680	22.59294700	1.46992000	75.00000000	#	B	HBbn
6539	2046	6	0.3879626021403370	21.33986500	3.66883300	75.00000000	#	B	HBbn
6540	2046	6	0.3556590256071120	20.08817600	5.87527800	75.00000000	#	B	HBbn
6541	2046	6	0.2815787845786300	18.85161900	8.09997900	75.00000000	#	B	HBbn
6542	2046	6	0.1725107616199370	17.60150700	10.28807100	75.00000000	#	B	HBbn
6543	2046	6	0.1142517620766700	16.33830200	12.46272700	75.00000000	#	B	HBbn
6544	2046	6	0.1165107570600250	11.40397000	20.97616800	75.00000000	#	B	HBbn
6545	2046	6	0.1788811585102570	10.15469200	23.15731900	75.00000000	#	B	HBbn
6546	2046	6	0.2957845368646180	8.88740800	25.33230000	75.00000000	#	B	HBbn
6547	2046	6	0.3747505593489730	7.58337900	27.51490700	75.00000000	#	B	HBbn
6548	2046	6	0.4087539429614990	6.30630900	29.69902800	75.00000000	#	B	HBbn
6549	2046	6	0.4201373740592150	5.03961600	31.88025200	75.00000000	#	B	HBbn
6550	2046	6	0.4201849645191340	3.77819400	34.05798200	75.00000000	#	B	HBbn
6551	2046	6	0.4062357868866250	25.10440000	1.44837800	75.00000000	#	B	HBbn
6552	2046	6	0.3858143067050550	23.85096700	3.64382000	75.00000000	#	B	HBbn
6553	2046	6	0.3523194168110170	22.59630600	5.84078600	75.00000000	#	B	HBbn
6554	2046	6	0.2843845525634520	21.34743200	8.05094900	75.00000000	#	B	HBbn
6555	2046	6	0.1451803881483060	20.13573100	10.31802600	75.00000000	#	B	HBbn
6556	2046	6	0.0899547631373027	18.87862200	12.49651400	75.00000000	#	B	HBbn
6557	2046	6	0.0920756423293701	12.70645400	23.15913700	75.00000000	#	B	HBbn
6558	2046	6	0.1537285658675530	11.45169600	25.33899400	75.00000000	#	B	HBbn
6559	2046	6	0.3021745906840350	10.09869700	27.52273400	75.00000000	#	B	HBbn
6560	2046	6	0.3730088519734390	8.81821100	29.71005500	75.00000000	#	B	HBbn
6561	2046	6	0.4026566739281090	7.55230100	31.89294500	75.00000000	#	B	HBbn
6562	2046	6	0.4112167492623360	6.29170800	34.07310300	75.00000000	#	B	HBbn
6563	2046	6	0.4130960551415510	27.61866200	1.43258200	75.00000000	#	B	HBbn
6564	2046	6	0.3925912916551220	26.36463100	3.62101800	75.00000000	#	B	HBbn
6565	2046	6	0.3598387094783080	25.11158600	5.81000300	75.00000000	#	B	HBbn
6566	2046	6	0.2937376298004690	23.86015600	7.99915200	75.00000000	#	B	HBbn
6567	2046	6	0.1557651271795460	22.61600800	10.19697700	75.00000000	#	B	HBbn
6568	2046	6	0.0120326270455315	21.49336000	12.55457500	75.00000000	#	B	HBbn
6569	2046	6	0.0119415844265550	14.06885600	25.39705600	75.00000000	#	B	HBbn
6570	2046	6	0.1709366554293370	12.59272400	27.55157400	75.00000000	#	B	HBbn
6571	2046	6	0.3176166603527170	11.31921500	29.73221200	75.00000000	#	B	HBbn
6572	2046	6	0.3815208195601380	10.05818000	31.91301300	75.00000000	#	B	HBbn
6573	2046	6	0.4026152909194840	8.79979900	34.09337600	75.00000000	#	B	HBbn
6574	2046	6	0.4181421957558480	30.13451600	1.42510000	75.00000000	#	B	HBbn
6575	2046	6	0.4011736103564860	28.87924200	3.60686100	75.00000000	#	B	HBbn
6576	2046	6	0.3753816502305150	27.62630200	5.79092800	75.00000000	#	B	HBbn
6577	2046	6	0.3272237258051740	26.37557400	7.97107100	75.00000000	#	B	HBbn
6578	2046	6	0.2341812729367860	25.13079600	10.14443800	75.00000000	#	B	HBbn
6579	2046	6	0.1000160071094270	23.90397400	12.30574800	75.00000000	#	B	HBbn
6580	2046	6	0.0084043717642729	22.48634000	14.27071600	75.00000000	#	B	HBbn
6581	2046	6	0.0875602388006978	21.23248600	16.56332900	75.00000000	#	B	HBbn
6582	2046	6	0.1144116039474870	19.99518600	18.78094200	75.00000000	#	B	HBbn
6583	2046	6	0.1161569323362760	18.72635800	20.97658500	75.00000000	#	B	HBbn
6584	2046	6	0.0918418283306348	17.42341500	23.15952300	75.00000000	#	B	HBbn
6585	2046	6	0.0122917881370500	16.05966800	25.39696600	75.00000000	#	B	HBbn
6586	2046	6	0.1155920542685350	15.06299500	27.61352000	75.00000000	#	B	HBbn
6587	2046	6	0.2618696094330300	13.80975200	29.76525200	75.00000000	#	B	HBbn
6588	2046	6	0.3557624831286760	12.55902300	31.93715700	75.00000000	#	B	HBbn
6589	2046	6	0.3946345777060160	11.30512600	34.11475800	75.00000000	#	B	HBbn
6590	2046	6	0.4051541384986710	31.39354100	3.60323600	75.00000000	#	B	HBbn
6591	2046	6	0.3858670700410530	30.13776600	5.78373900	75.00000000	#	B	HBbn
6592	2046	6	0.3556083314215450	28.88566500	7.96489300	75.00000000	#	B	HBbn
6593	2046	6	0.3058328486465470	27.63513700	10.14310600	75.00000000	#	B	HBbn
6594	2046	6	0.2268357889057240	26.38811800	12.31730200	75.00000000	#	B	HBbn
6595	2046	6	0.1469795144483090	25.08952000	14.47333000	75.00000000	#	B	HBbn
6596	2046	6	0.1385813501353290	23.74851300	16.56243300	75.00000000	#	B	HBbn
6597	2046	6	0.1705709330906070	22.51029200	18.77203900	75.00000000	#	B	HBbn
6598	2046	6	0.1826459777199800	21.25435800	20.97031800	75.00000000	#	B	HBbn
6599	2046	6	0.1783374892344360	19.97592000	23.15724600	75.00000000	#	B	HBbn
6600	2046	6	0.1537440844957880	18.67827300	25.33860500	75.00000000	#	B	HBbn
6601	2046	6	0.1718553582208280	17.53428200	27.55082000	75.00000000	#	B	HBbn
6602	2046	6	0.2623475831826570	16.31858300	29.76484200	75.00000000	#	B	HBbn
6603	2046	6	0.3435824291149150	15.06676200	31.94547600	75.00000000	#	B	HBbn
6604	2046	6	0.3871390802686860	13.81269500	34.12755800	75.00000000	#	B	HBbn
6605	2046	6	0.3663218750671320	31.39396300	7.96322400	75.00000000	#	B	HBbn
6606	2046	6	0.3399629677229900	30.14048800	10.14237600	75.00000000	#	B	HBbn
6607	2046	6	0.3062487478832360	28.88846000	12.31874900	75.00000000	#	B	HBbn
6608	2046	6	0.2741520863931390	27.61323400	14.48688600	75.00000000	#	B	HBbn
6609	2046	6	0.2710080123128010	26.31847000	16.64207700	75.00000000	#	B	HBbn
6610	2046	6	0.2760339787103930	25.03204300	18.78061700	75.00000000	#	B	HBbn
6611	2046	6	0.2813977339158920	23.77715000	20.96586400	75.00000000	#	B	HBbn
6612	2046	6	0.2877391627001740	22.51353100	23.14991800	75.00000000	#	B	HBbn
6613	2046	6	0.2952563862170330	21.24464000	25.33159100	75.00000000	#	B	HBbn
6614	2046	6	0.3028941377465150	20.03044100	27.52148300	75.00000000	#	B	HBbn
6615	2046	6	0.3188255614921950	18.80983500	29.73086800	75.00000000	#	B	HBbn
6616	2046	6	0.3562637348206550	17.57459600	31.93627300	75.00000000	#	B	HBbn
6617	2046	6	0.3873258210951090	16.32170100	34.12702300	75.00000000	#	B	HBbn
6618	2046	6	0.3297615388091460	31.39386700	12.31880400	75.00000000	#	B	HBbn
6619	2046	6	0.3216064996718430	30.13287500	14.48994900	75.00000000	#	B	HBbn
6620	2046	6	0.3269899118064390	28.85856800	16.65407800	75.00000000	#	B	HBbn
6621	2046	6	0.3444116411502530	27.58201000	18.81293400	75.00000000	#	B	HBbn
6622	2046	6	0.3490542974304490	26.30835700	20.97078600	75.00000000	#	B	HBbn
6623	2046	6	0.3539705988551830	25.04663100	23.14763800	75.00000000	#	B	HBbn
6624	2046	6	0.3642791063038460	23.78661400	25.32772800	75.00000000	#	B	HBbn
6625	2046	6	0.3747929769328140	22.54840700	27.51382000	75.00000000	#	B	HBbn
6626	2046	6	0.3742099937988000	21.31249000	29.70840200	75.00000000	#	B	HBbn
6627	2046	6	0.3824860782363330	20.07520300	31.91169200	75.00000000	#	B	HBbn
6628	2046	6	0.3951725568181510	18.82981300	34.11371400	75.00000000	#	B	HBbn
6629	2046	6	0.3408614962977750	31.39176500	16.65670200	75.00000000	#	B	HBbn
6630	2046	6	0.3681080691769400	30.12245800	18.82084900	75.00000000	#	B	HBbn
6631	2046	6	0.3868462954826590	28.85145100	20.98398200	75.00000000	#	B	HBbn
6632	2046	6	0.3966509648013040	27.58258400	23.14964200	75.00000000	#	B	HBbn
6633	2046	6	0.4042100886143970	26.32130800	25.32569400	75.00000000	#	B	HBbn
6634	2046	6	0.4099406007338410	25.07151200	27.50871900	75.00000000	#	B	HBbn
6635	2046	6	0.4093777918165320	23.82640400	29.69764100	75.00000000	#	B	HBbn
6636	2046	6	0.4038381588243730	22.58099500	31.89165200	75.00000000	#	B	HBbn
6637	2046	6	0.4033291478182770	21.33573000	34.09216000	75.00000000	#	B	HBbn
6638	2046	6	0.3982928356685290	31.39143200	20.98727900	74.99999900	#	B	HBbn
6639	2046	6	0.4167755218959840	30.12225600	23.15507500	74.99999900	#	B	HBbn
6640	2046	6	0.4273695721041650	28.85608200	25.32631400	75.00000000	#	B	HBbn
6641	2046	6	0.4312342278221980	27.59798700	27.50523800	75.00000000	#	B	HBbn
6642	2046	6	0.4295028661988200	26.34533100	29.69069100	75.00000000	#	B	HBbn
6643	2046	6	0.4209883121740810	25.09434100	31.87886900	75.00000000	#	B	HBbn
6644	2046	6	0.4119569878291290	23.84405800	34.07194100	75.00000000	#	B	HBbn
6645	2046	6	0.4353389049902600	31.39165200	25.32770000	74.99999900	#	B	HBbn
6646	2046	6	0.4424045364254910	30.12689400	27.50451400	74.99999900	#	B	HBbn
6647	2046	6	0.4404171174362420	28.86760700	29.68605000	74.99999900	#	B	HBbn
6648	2046	6	0.4327498805131140	27.61198400	31.87090300	74.99999900	#	B	HBbn
6649	2046	6	0.4209034770063980	26.35720400	34.05724400	75.00000000	#	B	HBbn
6650	2046	6	0.4443288463265860	31.39203300	29.68483500	74.99999900	#	B	HBbn
6651	2046	6	0.4384767716193040	30.13192400	31.86654700	74.99999900	#	B	HBbn
6652	2046	6	0.4276333887841530	28.87427900	34.04849000	74.99999900	#	B	HBbn
6653	2046	6	0.4302700037212190	31.39269700	34.04614700	74.99999900	#	B	HBbn
6654	2046	7	-0.4199930508166330	1.26183400	0.70169800	75.00000000	#	N	HBbn
6655	2046	7	-0.4089282688853350	0.00166300	2.87723300	75.00000000	#	N	HBbn
6656	2046	7	-0.4134447069892230	3.77784800	0.71163300	75.00000000	#	N	HBbn
6657	2046	7	-0.4030073949262120	2.51729100	2.88611000	75.00000000	#	N	HBbn
6658	2046	7	-0.3889459658828050	1.25747100	5.05945700	75.00000000	#	N	HBbn
6659	2046	7	-0.3711621352135170	-0.00100300	7.23620800	75.00000000	#	N	HBbn
6660	2046	7	-0.4068311849232270	6.29071900	0.72884800	75.00000000	#	N	HBbn
6661	2046	7	-0.3955046554623720	5.03342900	2.90441500	75.00000000	#	N	HBbn
6662	2046	7	-0.3775940893291670	3.77244000	5.07457200	75.00000000	#	N	HBbn
6663	2046	7	-0.3553600333697910	2.50856100	7.24219000	75.00000000	#	N	HBbn
6664	2046	7	-0.3363424717558480	1.25067300	9.41620700	75.00000100	#	N	HBbn
6665	2046	7	-0.3282464034058370	-0.00288200	11.59304000	75.00000100	#	N	HBbn
6666	2046	7	-0.4034424338043900	8.80072500	0.75052200	75.00000000	#	N	HBbn
6667	2046	7	-0.3925059391998320	7.54640800	2.92749800	75.00000000	#	N	HBbn
6668	2046	7	-0.3662903205230550	6.28805500	5.09892800	75.00000000	#	N	HBbn
6669	2046	7	-0.3303403836422980	5.02532700	7.26134400	75.00000000	#	N	HBbn
6670	2046	7	-0.2933098329488010	3.75757900	9.41905900	75.00000000	#	N	HBbn
6671	2046	7	-0.2838258819470050	2.49944600	11.59244600	75.00000100	#	N	HBbn
6672	2046	7	-0.3041914950669300	1.26039900	13.76741300	75.00000100	#	N	HBbn
6673	2046	7	-0.3300807052631710	0.00722400	15.93771600	75.00000100	#	N	HBbn
6674	2046	7	-0.4000681667385710	11.30886900	0.77083600	75.00000000	#	N	HBbn
6675	2046	7	-0.3944080057337910	10.05510800	2.94938500	75.00000000	#	N	HBbn
6676	2046	7	-0.3684562037370030	8.80099600	5.12632000	75.00000000	#	N	HBbn
6677	2046	7	-0.3132879976504680	7.54444200	7.29651400	75.00000000	#	N	HBbn
6678	2046	7	-0.2304412835322380	6.27423700	9.44722400	75.00000000	#	N	HBbn
6679	2046	7	-0.1814355247176780	4.99371500	11.58775400	75.00000000	#	N	HBbn
6680	2046	7	-0.2181582892845210	3.77587400	13.76258900	75.00000100	#	N	HBbn
6681	2046	7	-0.2932865550064490	2.54023000	15.93354200	75.00000100	#	N	HBbn
6682	2046	7	-0.3490843001117030	1.27978000	18.10157300	75.00000100	#	N	HBbn
6683	2046	7	-0.3869735482341830	0.01130200	20.26886600	75.00000100	#	N	HBbn
6684	2046	7	-0.3961114338263460	13.81591200	0.78324600	75.00000000	#	N	HBbn
6685	2046	7	-0.3913348000557240	12.56126700	2.96885200	75.00000000	#	N	HBbn
6686	2046	7	-0.3661304786522390	11.30732100	5.15446000	75.00000000	#	N	HBbn
6687	2046	7	-0.3122420421074530	10.04944800	7.33744400	75.00000000	#	N	HBbn
6688	2046	7	-0.1920859592751110	8.78757200	9.51282900	74.99999900	#	N	HBbn
6689	2046	7	-0.0648875229498897	7.50751200	11.64318600	75.00000000	#	N	HBbn
6690	2046	7	-0.0599169063263347	6.29020400	13.74242800	75.00000000	#	N	HBbn
6691	2046	7	-0.1809363421761310	5.07843700	15.91292400	75.00000000	#	N	HBbn
6692	2046	7	-0.3014721141126140	3.81908100	18.08825100	75.00000000	#	N	HBbn
6693	2046	7	-0.3618525101355560	2.55227100	20.26207900	75.00000100	#	N	HBbn
6694	2046	7	-0.4012206835287970	1.28132400	22.43378700	75.00000100	#	N	HBbn
6695	2046	7	-0.4276814965316810	0.00985500	24.60564100	75.00000100	#	N	HBbn
6696	2046	7	-0.3961228141537180	16.32146800	0.78277300	75.00000000	#	N	HBbn
6697	2046	7	-0.3902365984643200	15.06834800	2.97779000	75.00000000	#	N	HBbn
6698	2046	7	-0.3607739654732490	13.81375100	5.17134700	75.00000000	#	N	HBbn
6699	2046	7	-0.3058561265888990	12.54916600	7.36543900	75.00000000	#	N	HBbn
6700	2046	7	-0.2071157507203590	11.27065700	9.57362800	75.00000000	#	N	HBbn
6701	2046	7	-0.0511147403916473	9.96393400	11.82349500	75.00000000	#	N	HBbn
6702	2046	7	-0.0453656059183212	7.66561300	15.77882200	75.00000000	#	N	HBbn
6703	2046	7	-0.2016128451483560	6.36675100	18.03290600	75.00000000	#	N	HBbn
6704	2046	7	-0.3044558290345270	5.09230500	20.24025200	75.00000000	#	N	HBbn
6705	2046	7	-0.3682187687250130	3.82045200	22.42565900	75.00000000	#	N	HBbn
6706	2046	7	-0.4107646398931000	2.54704700	24.60287500	75.00000100	#	N	HBbn
6707	2046	7	-0.4347548872810290	1.27336600	26.77957900	75.00000000	#	N	HBbn
6708	2046	7	-0.4433206527789430	0.00522100	28.95864900	75.00000100	#	N	HBbn
6709	2046	7	-0.4001809354370770	18.82737600	0.77005400	75.00000000	#	N	HBbn
6710	2046	7	-0.3916043068993990	17.57571500	2.96845900	75.00000000	#	N	HBbn
6711	2046	7	-0.3607155119735650	16.32564900	5.17144800	75.00000000	#	N	HBbn
6712	2046	7	-0.3046203264938140	15.06937900	7.36451200	75.00000000	#	N	HBbn
6713	2046	7	-0.2169318003663770	13.80363000	9.55543500	75.00000000	#	N	HBbn
6714	2046	7	-0.0916245675353499	12.52744000	11.75154700	75.00000000	#	N	HBbn
6715	2046	7	-0.0906112011116279	8.88230700	18.03184900	75.00000000	#	N	HBbn
6716	2046	7	-0.2178277425031230	7.61810400	20.23480300	75.00000000	#	N	HBbn
6717	2046	7	-0.3114045534703910	6.35341200	22.42313400	75.00000000	#	N	HBbn
6718	2046	7	-0.3762796615176930	5.08089800	24.60235700	75.00000000	#	N	HBbn
6719	2046	7	-0.4162168512795370	3.80119300	26.78069200	75.00000000	#	N	HBbn
6720	2046	7	-0.4347114351219720	2.52974800	28.96105900	75.00000000	#	N	HBbn
6721	2046	7	-0.4378260238086650	1.26471800	31.14156800	75.00000000	#	N	HBbn
6722	2046	7	-0.4326655626330390	0.00264300	33.32076300	75.00000100	#	N	HBbn
6723	2046	7	-0.4038205710457070	21.33460200	0.74948200	75.00000000	#	N	HBbn
6724	2046	7	-0.3947395870904040	20.08284300	2.94875100	75.00000000	#	N	HBbn
6725	2046	7	-0.3659525317151480	18.83106400	5.15385400	75.00000000	#	N	HBbn
6726	2046	7	-0.3059000960355640	17.59080100	7.36531000	75.00000000	#	N	HBbn
6727	2046	7	-0.2168981766718680	16.33591500	9.55530800	75.00000000	#	N	HBbn
6728	2046	7	-0.1046240051198990	15.06946600	11.73955200	75.00000000	#	N	HBbn
6729	2046	7	-0.1068255811787870	10.14171500	20.24147700	75.00000000	#	N	HBbn
6730	2046	7	-0.2226354135302140	8.88664500	22.42801000	75.00000000	#	N	HBbn
6731	2046	7	-0.3189067756466230	7.61995400	24.60491900	75.00000000	#	N	HBbn
6732	2046	7	-0.3849969922846970	6.32825600	26.78304400	75.00000000	#	N	HBbn
6733	2046	7	-0.4180108047034610	5.05162800	28.96535400	75.00000000	#	N	HBbn
6734	2046	7	-0.4281718851838950	3.78353400	31.14720400	75.00000000	#	N	HBbn
6735	2046	7	-0.4272164549722500	2.52107600	33.32579900	75.00000000	#	N	HBbn
6736	2046	7	-0.4074829673090820	23.84498500	0.72766600	75.00000000	#	N	HBbn
6737	2046	7	-0.3926854379997460	22.59198200	2.92649400	75.00000000	#	N	HBbn
6738	2046	7	-0.3683863699099470	21.33657700	5.12534600	75.00000000	#	N	HBbn
6739	2046	7	-0.3121872096210240	20.09082100	7.33648100	75.00000000	#	N	HBbn
6740	2046	7	-0.2068234832219400	18.86872200	9.57280700	75.00000000	#	N	HBbn
6741	2046	7	-0.0917156101543264	17.61285100	11.75127600	75.00000000	#	N	HBbn
6742	2046	7	-0.0954002497848376	11.42694300	22.43572700	75.00000000	#	N	HBbn
6743	2046	7	-0.2168293774200280	10.17174700	24.61228100	75.00000000	#	N	HBbn
6744	2046	7	-0.3291645889097200	8.84968300	26.78802900	75.00000000	#	N	HBbn
6745	2046	7	-0.3882843550324020	7.56726100	28.97280700	75.00000000	#	N	HBbn
6746	2046	7	-0.4110874273603810	6.29900800	31.15588300	75.00000000	#	N	HBbn
6747	2046	7	-0.4175043801354040	5.03819400	33.33547000	75.00000000	#	N	HBbn
6748	2046	7	-0.4140080331941400	26.35917800	0.71092400	75.00000000	#	N	HBbn
6749	2046	7	-0.3956282872006410	25.10379700	2.90339600	75.00000000	#	N	HBbn
6750	2046	7	-0.3663896397437570	23.84955400	5.09803200	75.00000000	#	N	HBbn
6751	2046	7	-0.3129238271745620	22.59523400	7.29568700	75.00000000	#	N	HBbn
6752	2046	7	-0.1917869670377910	21.35063400	9.51176600	75.00000000	#	N	HBbn
6753	2046	7	-0.0507924702119746	20.17594000	11.82259400	75.00000000	#	N	HBbn
6754	2046	7	-0.0525310738618621	12.77419600	24.62080900	75.00000000	#	N	HBbn
6755	2046	7	-0.2050993636250720	11.36525000	26.79603800	75.00000000	#	N	HBbn
6756	2046	7	-0.3336194697882770	10.07678600	28.98360400	75.00000000	#	N	HBbn
6757	2046	7	-0.3861127816547680	8.81046200	31.16839800	75.00000000	#	N	HBbn
6758	2046	7	-0.4061328466526690	7.54993700	33.34979600	75.00000000	#	N	HBbn
6759	2046	7	-0.4202108288995250	28.87495300	0.70108100	75.00000000	#	N	HBbn
6760	2046	7	-0.4032505201018880	27.61929900	2.88546600	75.00000000	#	N	HBbn
6761	2046	7	-0.3777089271781030	26.36604900	5.07389000	75.00000000	#	N	HBbn
6762	2046	7	-0.3298893088482770	25.11254400	7.26068200	75.00000000	#	N	HBbn
6763	2046	7	-0.2299674480834740	23.86500000	9.44691800	75.00000000	#	N	HBbn
6764	2046	7	-0.0646562953891936	22.62958200	11.64175500	75.00000000	#	N	HBbn
6765	2046	7	-0.0726463197796016	13.84988300	26.83986000	75.00000000	#	N	HBbn
6766	2046	7	-0.2524875640899750	12.57351100	29.01074300	75.00000000	#	N	HBbn
6767	2046	7	-0.3549767232523950	11.31416500	31.18984800	75.00000000	#	N	HBbn
6768	2046	7	-0.3949133957266320	10.05608700	33.37090300	75.00000000	#	N	HBbn
6769	2046	7	-0.4228231313190230	31.39253200	0.69823100	75.00000100	#	N	HBbn
6770	2046	7	-0.4091082849728570	30.13603200	2.87716700	75.00000000	#	N	HBbn
6771	2046	7	-0.3888176785560660	28.88027200	5.05897800	75.00000000	#	N	HBbn
6772	2046	7	-0.3552343324810900	27.62935400	7.24169200	75.00000000	#	N	HBbn
6773	2046	7	-0.2926389109214570	26.38110500	9.41880600	75.00000000	#	N	HBbn
6774	2046	7	-0.1808339192297820	25.14432100	11.58765400	75.00000000	#	N	HBbn
6775	2046	7	-0.0605454107698376	23.84409800	13.74163900	75.00000000	#	N	HBbn
6776	2046	7	-0.0462605134798521	22.46406200	15.77732900	75.00000000	#	N	HBbn
6777	2046	7	-0.0902935865204257	21.24751300	18.03147300	75.00000000	#	N	HBbn
6778	2046	7	-0.1063108800090050	19.98853500	20.24176600	75.00000000	#	N	HBbn
6779	2046	7	-0.0950003864639918	18.70266700	22.43611400	75.00000000	#	N	HBbn
6780	2046	7	-0.0526169436047604	17.35563400	24.62109300	75.00000000	#	N	HBbn
6781	2046	7	-0.0730404929367614	16.27590700	26.83987800	75.00000000	#	N	HBbn
6782	2046	7	-0.2073542203075650	15.06350300	29.05076100	75.00000000	#	N	HBbn
6783	2046	7	-0.3239203271416270	13.81334300	31.21633300	75.00000000	#	N	HBbn
6784	2046	7	-0.3815115083831980	12.55973300	33.39244100	75.00000000	#	N	HBbn
6785	2046	7	-0.3937717419761700	31.39323900	5.05546400	75.00000000	#	N	HBbn
6786	2046	7	-0.3712164504123380	30.13973000	7.23604800	75.00000000	#	N	HBbn
6787	2046	7	-0.3358748437583780	28.88682600	9.41595500	75.00000000	#	N	HBbn
6788	2046	7	-0.2833075597639680	27.63890800	11.59235500	75.00000000	#	N	HBbn
6789	2046	7	-0.2178437784189660	26.36074700	13.76257900	75.00000000	#	N	HBbn
6790	2046	7	-0.1818969452638550	25.05321300	15.91224200	75.00000000	#	N	HBbn
6791	2046	7	-0.2020535741902200	23.76306800	18.03186200	75.00000000	#	N	HBbn
6792	2046	7	-0.2174697794785110	22.51411100	20.23449800	75.00000000	#	N	HBbn
6793	2046	7	-0.2220400154936120	21.24461800	22.42801900	75.00000000	#	N	HBbn
6794	2046	7	-0.2164445154398090	19.95928900	24.61223000	75.00000000	#	N	HBbn
6795	2046	7	-0.2057444212720250	18.76227100	26.79556200	75.00000000	#	N	HBbn
6796	2046	7	-0.2534626512307180	17.55380200	29.00998700	75.00000000	#	N	HBbn
6797	2046	7	-0.3242369071576140	16.31997900	31.21594400	75.00000000	#	N	HBbn
6798	2046	7	-0.3745938212038030	15.06660600	33.39939500	75.00000000	#	N	HBbn
6799	2046	7	-0.3512538043389060	31.39323300	9.41500200	75.00000000	#	N	HBbn
6800	2046	7	-0.3280203487212190	30.14180300	11.59284400	75.00000000	#	N	HBbn
6801	2046	7	-0.3036974854014610	28.87597300	13.76732500	75.00000000	#	N	HBbn
6802	2046	7	-0.2934784687089510	27.59342800	15.93374000	75.00000000	#	N	HBbn
6803	2046	7	-0.3020907900915680	26.31270800	18.08806900	75.00000000	#	N	HBbn
6804	2046	7	-0.3044056521365680	25.03905700	20.23948900	75.00000000	#	N	HBbn
6805	2046	7	-0.3107170782395960	23.77902400	22.42267400	75.00000000	#	N	HBbn
6806	2046	7	-0.3183031010082960	22.51349000	24.60473100	75.00000000	#	N	HBbn
6807	2046	7	-0.3292406301880700	21.28097300	26.78745300	75.00000000	#	N	HBbn
6808	2046	7	-0.3348113004366970	20.05201100	28.98233600	75.00000000	#	N	HBbn
6809	2046	7	-0.3558069698629490	18.81903000	31.18853300	75.00000000	#	N	HBbn
6810	2046	7	-0.3819941377212950	17.57424700	33.39158100	75.00000000	#	N	HBbn
6811	2046	7	-0.3269873253684000	31.39234400	13.76794800	75.00000000	#	N	HBbn
6812	2046	7	-0.3299131040782370	30.12709100	15.93778500	75.00000000	#	N	HBbn
6813	2046	7	-0.3491929305093450	28.85458600	18.10151800	75.00000000	#	N	HBbn
6814	2046	7	-0.3621302935809560	27.58187400	20.26176300	75.00000000	#	N	HBbn
6815	2046	7	-0.3681277261060370	26.31238300	22.42505600	75.00000000	#	N	HBbn
6816	2046	7	-0.3756496052113660	25.05151900	24.60180000	75.00000000	#	N	HBbn
6817	2046	7	-0.3849199164311320	23.80492900	26.78284900	75.00000000	#	N	HBbn
6818	2046	7	-0.3889263089537080	22.56428500	28.97158900	75.00000000	#	N	HBbn
6819	2046	7	-0.3872021893568400	21.32222300	31.16698200	75.00000000	#	N	HBbn
6820	2046	7	-0.3957917500847130	20.07905200	33.36961800	75.00000000	#	N	HBbn
6821	2046	7	-0.3596509340766690	31.39117100	18.10438200	75.00000100	#	N	HBbn
6822	2046	7	-0.3869611333315950	30.12204500	20.26895400	75.00000000	#	N	HBbn
6823	2046	7	-0.4012134415022880	28.85325600	22.43377200	75.00000000	#	N	HBbn
6824	2046	7	-0.4106880813271430	27.58705500	24.60240400	75.00000000	#	N	HBbn
6825	2046	7	-0.4159494135862940	26.33145900	26.77993300	75.00000000	#	N	HBbn
6826	2046	7	-0.4184437744312080	25.08250300	28.96491800	75.00000000	#	N	HBbn
6827	2046	7	-0.4120200969172830	23.83358800	31.15456100	75.00000000	#	N	HBbn
6828	2046	7	-0.4070313752274540	22.58604800	33.34859700	75.00000000	#	N	HBbn
6829	2046	7	-0.4121209680008080	31.39119800	22.43640600	75.00000100	#	N	HBbn
6830	2046	7	-0.4275045841698060	30.12391100	24.60579500	75.00000100	#	N	HBbn
6831	2046	7	-0.4347662676084020	28.86138000	26.77946600	75.00000000	#	N	HBbn
6832	2046	7	-0.4348624831034560	27.60378400	28.96030900	75.00000000	#	N	HBbn
6833	2046	7	-0.4287465917161850	26.35112400	31.14640200	75.00000000	#	N	HBbn
6834	2046	7	-0.4182461705650200	25.09730300	33.33428200	75.00000000	#	N	HBbn
6835	2046	7	-0.4409628558624930	31.39147600	26.78006400	75.00000100	#	N	HBbn
6836	2046	7	-0.4432492670890630	30.12939400	28.95859300	75.00000100	#	N	HBbn
6837	2046	7	-0.4382119203640990	28.87062300	31.14116400	75.00000100	#	N	HBbn
6838	2046	7	-0.4276633914654070	27.61355700	33.32515900	75.00000000	#	N	HBbn
6839	2046	7	-0.4410528639062540	31.39192400	31.13945800	75.00000100	#	N	HBbn
6840	2046	7	-0.4328523034594630	30.13343100	33.32039400	75.00000100	#	N	HBbn
6841	2046	8	-0.0620641671864010	16.40587800	22.52967700	75.00000000	#	HB	HBbn
6842	2046	8	-0.0656179330521334	17.69559600	20.36996900	75.00000000	#	HB	HBbn
6843	2046	8	-0.0656024144238988	18.95531500	18.19001600	75.00000000	#	HB	HBbn
6844	2046	8	-0.0610704576917763	20.17902500	15.99572700	75.00000000	#	HB	HBbn
6845	2046	8	-0.0616239554321451	18.84384100	13.69262100	75.00000000	#	HB	HBbn
6846	2046	8	-0.0655584449772340	16.33100700	13.65871800	75.00000000	#	HB	HBbn
6847	2046	8	-0.0654249847744161	13.80923600	13.65928900	75.00000000	#	HB	HBbn
6848	2046	8	-0.0617005139981026	11.29664300	13.69310600	75.00000000	#	HB	HBbn
6849	2046	8	-0.0613446201239216	9.95092000	15.99602700	75.00000000	#	HB	HBbn
6850	2046	8	-0.0656075872999770	11.17473500	18.18954300	75.00000000	#	HB	HBbn
6851	2046	8	-0.0656660407996608	12.43501000	20.36990400	75.00000000	#	HB	HBbn
6852	2046	8	-0.0620988254561250	13.72435500	22.52971300	75.00000000	#	HB	HBbn
6853	2047	2	-1.1128	10.47487100	19.45710700	79.90827000	#	O	TIP4P
6854	2047	3	0.5564	10.89104600	19.15960900	79.09924200	#	H	TIP4P
6855	2047	3	0.5564	11.13877200	19.99923100	80.33437800	#	H	TIP4P
6856	2048	2	-1.1128	16.23575900	15.58791500	78.89709300	#	O	TIP4P
6857	2048	3	0.5564	16.64160700	14.72602000	78.99013700	#	H	TIP4P
6858	2048	3	0.5564	16.97270600	16.19785900	78.86381400	#	H	TIP4P
6859	2049	2	-1.1128	16.62736500	2.13633300	88.43547600	#	O	TIP4P
6860	2049	3	0.5564	15.91241700	1.49991400	88.44262700	#	H	TIP4P
6861	2049	3	0.5564	17.42168800	1.60440500	88.38717100	#	H	TIP4P
6862	2050	2	-1.1128	9.90988100	20.45370000	93.54818400	#	O	TIP4P
6863	2050	3	0.5564	10.74645200	19.98853200	93.54921500	#	H	TIP4P
6864	2050	3	0.5564	9.24984200	19.76052100	93.55728100	#	H	TIP4P
6865	2051	2	-1.1128	6.96930000	18.77762000	78.00659400	#	O	TIP4P
6866	2051	3	0.5564	6.17686300	18.33262300	78.30701400	#	H	TIP4P
6867	2051	3	0.5564	7.63995900	18.09468800	77.99939000	#	H	TIP4P
6868	2052	2	-1.1128	4.41783500	27.15040100	84.73790100	#	O	TIP4P
6869	2052	3	0.5564	4.33334500	27.55793800	83.87592300	#	H	TIP4P
6870	2052	3	0.5564	4.14817700	27.83225100	85.35320400	#	H	TIP4P
6871	2053	2	-1.1128	24.46951600	12.79699900	92.83991700	#	O	TIP4P
6872	2053	3	0.5564	24.10923800	12.02477300	93.27592100	#	H	TIP4P
6873	2053	3	0.5564	25.13798300	12.44929800	92.24959000	#	H	TIP4P
6874	2054	2	-1.1128	22.31487900	25.10166300	84.74258200	#	O	TIP4P
6875	2054	3	0.5564	23.02902800	25.73850300	84.76823300	#	H	TIP4P
6876	2054	3	0.5564	22.69707100	24.32913200	84.32622200	#	H	TIP4P
6877	2055	2	-1.1128	5.48628300	12.06389000	80.17891500	#	O	TIP4P
6878	2055	3	0.5564	4.55307200	12.14911100	80.37407200	#	H	TIP4P
6879	2055	3	0.5564	5.56165600	12.30688700	79.25614600	#	H	TIP4P
6880	2056	2	-1.1128	18.62425700	22.15256500	80.75249700	#	O	TIP4P
6881	2056	3	0.5564	18.33602900	22.62656600	81.53254800	#	H	TIP4P
6882	2056	3	0.5564	18.46863600	21.23125500	80.96034600	#	H	TIP4P
6883	2057	2	-1.1128	6.58157800	11.96792400	92.53982100	#	O	TIP4P
6884	2057	3	0.5564	6.78903900	11.25914400	91.93086900	#	H	TIP4P
6885	2057	3	0.5564	7.09445900	11.76911200	93.32318500	#	H	TIP4P
6886	2058	2	-1.1128	13.54266600	23.91332900	81.26973500	#	O	TIP4P
6887	2058	3	0.5564	13.56039700	23.00490100	80.96861000	#	H	TIP4P
6888	2058	3	0.5564	13.21217600	24.40826000	80.52003500	#	H	TIP4P
6889	2059	2	-1.1128	30.24445400	11.58305900	82.07658700	#	O	TIP4P
6890	2059	3	0.5564	31.14950700	11.27395700	82.03700100	#	H	TIP4P
6891	2059	3	0.5564	30.27565900	12.34319900	82.65748700	#	H	TIP4P
6892	2060	2	-1.1128	4.17188000	22.52649800	81.36411500	#	O	TIP4P
6893	2060	3	0.5564	4.34712900	23.46186000	81.26107200	#	H	TIP4P
6894	2060	3	0.5564	5.01685600	22.14962600	81.60950100	#	H	TIP4P
6895	2061	2	-1.1128	8.19735700	1.67034900	86.23448600	#	O	TIP4P
6896	2061	3	0.5564	8.28948100	1.49986100	85.29710700	#	H	TIP4P
6897	2061	3	0.5564	9.06789000	1.50291600	86.59555300	#	H	TIP4P
6898	2062	2	-1.1128	17.87355400	9.12138800	84.33052900	#	O	TIP4P
6899	2062	3	0.5564	17.95667500	8.57416700	83.54958600	#	H	TIP4P
6900	2062	3	0.5564	17.45864300	9.92512000	84.01732900	#	H	TIP4P
6901	2063	2	-1.1128	12.32146400	21.13960800	90.41301400	#	O	TIP4P
6902	2063	3	0.5564	11.87091800	20.99107300	91.24438500	#	H	TIP4P
6903	2063	3	0.5564	11.65655200	20.96907100	89.74590000	#	H	TIP4P
6904	2064	2	-1.1128	1.49998300	10.21126300	91.24215500	#	O	TIP4P
6905	2064	3	0.5564	2.24462700	9.90173500	91.75783800	#	H	TIP4P
6906	2064	3	0.5564	1.70772800	11.12459300	91.04492000	#	H	TIP4P
6907	2065	2	-1.1128	30.38358300	19.13190600	85.18476200	#	O	TIP4P
6908	2065	3	0.5564	30.06559800	19.50741200	84.36371800	#	H	TIP4P
6909	2065	3	0.5564	31.14951800	18.61639300	84.93213300	#	H	TIP4P
6910	2066	2	-1.1128	16.00167400	15.12111400	82.21532200	#	O	TIP4P
6911	2066	3	0.5564	16.01958000	15.87334900	81.62366800	#	H	TIP4P
6912	2066	3	0.5564	15.98449300	14.35989900	81.63524600	#	H	TIP4P
6913	2067	2	-1.1128	20.10789100	29.35998300	82.96295900	#	O	TIP4P
6914	2067	3	0.5564	20.87313600	28.86871400	82.66415200	#	H	TIP4P
6915	2067	3	0.5564	20.06492300	30.11643500	82.37801100	#	H	TIP4P
6916	2068	2	-1.1128	14.91131000	26.32843000	82.92764300	#	O	TIP4P
6917	2068	3	0.5564	14.56651100	26.47114300	82.04617900	#	H	TIP4P
6918	2068	3	0.5564	14.39992500	25.59507200	83.26955300	#	H	TIP4P
6919	2069	2	-1.1128	13.95789600	13.24794800	78.55655200	#	O	TIP4P
6920	2069	3	0.5564	14.71934800	12.67029600	78.50419800	#	H	TIP4P
6921	2069	3	0.5564	14.18317300	13.99306100	77.99951800	#	H	TIP4P
6922	2070	2	-1.1128	9.00829100	5.58215900	82.51831300	#	O	TIP4P
6923	2070	3	0.5564	9.54935400	5.46250700	81.73782200	#	H	TIP4P
6924	2070	3	0.5564	9.63016800	5.81322800	83.20831800	#	H	TIP4P
6925	2071	2	-1.1128	12.04222600	10.32951200	78.43746500	#	O	TIP4P
6926	2071	3	0.5564	11.22206600	10.55780500	77.99991400	#	H	TIP4P
6927	2071	3	0.5564	12.70461900	10.86428900	77.99988000	#	H	TIP4P
6928	2072	2	-1.1128	20.41639300	1.69294800	84.17897200	#	O	TIP4P
6929	2072	3	0.5564	19.75501700	1.51783500	83.50953200	#	H	TIP4P
6930	2072	3	0.5564	19.97668300	1.49997200	85.00701000	#	H	TIP4P
6931	2073	2	-1.1128	2.04420800	14.96342600	91.69771400	#	O	TIP4P
6932	2073	3	0.5564	1.72329300	14.76785400	92.57805300	#	H	TIP4P
6933	2073	3	0.5564	2.69720000	14.28539900	91.52418500	#	H	TIP4P
6934	2074	2	-1.1128	23.67915100	17.30954000	92.93253000	#	O	TIP4P
6935	2074	3	0.5564	23.77128600	16.64071700	92.25398900	#	H	TIP4P
6936	2074	3	0.5564	24.54158700	17.35281400	93.34552300	#	H	TIP4P
6937	2075	2	-1.1128	2.00358000	23.29534400	79.83194000	#	O	TIP4P
6938	2075	3	0.5564	1.49953600	23.75016100	80.50670900	#	H	TIP4P
6939	2075	3	0.5564	1.49859700	23.42225000	79.02874800	#	H	TIP4P
6940	2076	2	-1.1128	3.36187000	20.28755200	94.00026100	#	O	TIP4P
6941	2076	3	0.5564	2.43582900	20.52979300	94.00044700	#	H	TIP4P
6942	2076	3	0.5564	3.82854800	21.12328100	93.99994100	#	H	TIP4P
6943	2077	2	-1.1128	9.94264300	1.49990800	82.65572200	#	O	TIP4P
6944	2077	3	0.5564	9.50140700	2.34913800	82.67442200	#	H	TIP4P
6945	2077	3	0.5564	10.86815000	1.71291000	82.53614000	#	H	TIP4P
6946	2078	2	-1.1128	22.68868800	9.78984000	80.59024400	#	O	TIP4P
6947	2078	3	0.5564	23.55465400	9.80940000	80.99761700	#	H	TIP4P
6948	2078	3	0.5564	22.73374100	9.06618400	79.96532500	#	H	TIP4P
6949	2079	2	-1.1128	1.58170000	2.46321200	90.24775600	#	O	TIP4P
6950	2079	3	0.5564	2.33077000	2.22313500	90.79318100	#	H	TIP4P
6951	2079	3	0.5564	1.50391900	1.74658300	89.61797500	#	H	TIP4P
6952	2080	2	-1.1128	14.08100100	3.40754500	91.13394100	#	O	TIP4P
6953	2080	3	0.5564	13.14791900	3.25392100	90.98565400	#	H	TIP4P
6954	2080	3	0.5564	14.38341700	2.62355600	91.59234900	#	H	TIP4P
6955	2081	2	-1.1128	24.79136100	18.33976100	83.52655100	#	O	TIP4P
6956	2081	3	0.5564	24.32051100	18.00397900	84.28929700	#	H	TIP4P
6957	2081	3	0.5564	25.00168100	17.56042400	83.01212900	#	H	TIP4P
6958	2082	2	-1.1128	24.57872500	24.26302400	86.60535200	#	O	TIP4P
6959	2082	3	0.5564	25.01296100	23.52718200	86.17383600	#	H	TIP4P
6960	2082	3	0.5564	25.24763700	24.63155400	87.18239100	#	H	TIP4P
6961	2083	2	-1.1128	22.24753400	4.75711700	91.11559100	#	O	TIP4P
6962	2083	3	0.5564	22.96029300	4.11822200	91.11992900	#	H	TIP4P
6963	2083	3	0.5564	22.58713400	5.49892900	91.61621000	#	H	TIP4P
6964	2084	2	-1.1128	2.06392400	21.57901800	85.45883700	#	O	TIP4P
6965	2084	3	0.5564	1.49892700	20.87663400	85.78081100	#	H	TIP4P
6966	2084	3	0.5564	1.49757000	22.35029000	85.43406600	#	H	TIP4P
6967	2085	2	-1.1128	29.18964600	27.06332400	83.09164700	#	O	TIP4P
6968	2085	3	0.5564	29.07714600	27.15113100	82.14514500	#	H	TIP4P
6969	2085	3	0.5564	28.57245500	27.69193400	83.46602100	#	H	TIP4P
6970	2086	2	-1.1128	11.30163100	1.50980500	93.08459300	#	O	TIP4P
6971	2086	3	0.5564	11.24033400	1.78240700	94.00010600	#	H	TIP4P
6972	2086	3	0.5564	12.24071300	1.49989100	92.89950600	#	H	TIP4P
6973	2087	2	-1.1128	22.14575900	32.33326500	86.19668900	#	O	TIP4P
6974	2087	3	0.5564	22.58592500	33.17291000	86.06447000	#	H	TIP4P
6975	2087	3	0.5564	22.82206400	31.76260900	86.56164700	#	H	TIP4P
6976	2088	2	-1.1128	25.89711800	17.12875600	86.49319400	#	O	TIP4P
6977	2088	3	0.5564	25.47364100	16.31929600	86.20740800	#	H	TIP4P
6978	2088	3	0.5564	25.20888600	17.61069100	86.95178500	#	H	TIP4P
6979	2089	2	-1.1128	22.50171500	11.24751000	91.17736600	#	O	TIP4P
6980	2089	3	0.5564	21.99996600	10.91366600	90.43370700	#	H	TIP4P
6981	2089	3	0.5564	22.40487800	12.19834400	91.12475200	#	H	TIP4P
6982	2090	2	-1.1128	27.04364600	30.81498800	91.41008200	#	O	TIP4P
6983	2090	3	0.5564	26.29775200	31.40972400	91.33157900	#	H	TIP4P
6984	2090	3	0.5564	26.65045400	29.94548100	91.48483400	#	H	TIP4P
6985	2091	2	-1.1128	16.22267400	5.74667500	86.92680600	#	O	TIP4P
6986	2091	3	0.5564	15.47275400	6.33908500	86.87293600	#	H	TIP4P
6987	2091	3	0.5564	16.97284900	6.32212900	87.07621100	#	H	TIP4P
6988	2092	2	-1.1128	8.95470300	13.60090000	91.66483100	#	O	TIP4P
6989	2092	3	0.5564	8.37835100	13.35366400	90.94169600	#	H	TIP4P
6990	2092	3	0.5564	8.37819800	14.03528100	92.29347000	#	H	TIP4P
6991	2093	2	-1.1128	12.62899900	14.00672500	92.05599200	#	O	TIP4P
6992	2093	3	0.5564	12.59953200	14.96339500	92.04393500	#	H	TIP4P
6993	2093	3	0.5564	11.91473100	13.73732600	91.47851700	#	H	TIP4P
6994	2094	2	-1.1128	26.81301000	18.62870500	90.73816900	#	O	TIP4P
6995	2094	3	0.5564	26.83423600	18.10648000	89.93625800	#	H	TIP4P
6996	2094	3	0.5564	26.15804800	18.19820400	91.28764700	#	H	TIP4P
6997	2095	2	-1.1128	2.08423900	1.68832500	83.40403000	#	O	TIP4P
6998	2095	3	0.5564	1.49996600	1.49971400	84.13838800	#	H	TIP4P
6999	2095	3	0.5564	1.49997600	1.95974700	82.69607700	#	H	TIP4P
7000	2096	2	-1.1128	1.49992200	29.38853800	93.65519700	#	O	TIP4P
7001	2096	3	0.5564	1.63811300	29.28182800	92.71405500	#	H	TIP4P
7002	2096	3	0.5564	1.49948800	28.49576800	94.00044000	#	H	TIP4P
7003	2097	2	-1.1128	26.22510500	32.51160900	82.59783300	#	O	TIP4P
7004	2097	3	0.5564	25.53179100	32.98785500	83.05471100	#	H	TIP4P
7005	2097	3	0.5564	26.30359800	31.68562900	83.07514500	#	H	TIP4P
7006	2098	2	-1.1128	7.81743500	13.64585200	87.35332700	#	O	TIP4P
7007	2098	3	0.5564	7.17253400	14.32392200	87.55471300	#	H	TIP4P
7008	2098	3	0.5564	7.67205300	13.44327500	86.42917500	#	H	TIP4P
7009	2099	2	-1.1128	10.04800400	2.84681800	91.02851000	#	O	TIP4P
7010	2099	3	0.5564	10.44598300	3.61938600	90.62728300	#	H	TIP4P
7011	2099	3	0.5564	9.56041600	3.18962900	91.77748900	#	H	TIP4P
7012	2100	2	-1.1128	6.71548200	6.41811800	79.68179400	#	O	TIP4P
7013	2100	3	0.5564	6.71331200	6.23676100	80.62165400	#	H	TIP4P
7014	2100	3	0.5564	7.63828400	6.55141100	79.46523000	#	H	TIP4P
7015	2101	2	-1.1128	4.30451100	14.24470000	85.68136600	#	O	TIP4P
7016	2101	3	0.5564	4.94666500	13.65932800	86.08287400	#	H	TIP4P
7017	2101	3	0.5564	4.19662200	14.95364900	86.31538700	#	H	TIP4P
7018	2102	2	-1.1128	28.33964000	6.39180000	87.95366200	#	O	TIP4P
7019	2102	3	0.5564	28.04770200	7.22675800	87.58780800	#	H	TIP4P
7020	2102	3	0.5564	27.92706300	5.72949800	87.39925600	#	H	TIP4P
7021	2103	2	-1.1128	25.05848600	10.63908900	89.08748400	#	O	TIP4P
7022	2103	3	0.5564	24.96397300	10.85593600	90.01499500	#	H	TIP4P
7023	2103	3	0.5564	24.16017700	10.57671800	88.76286000	#	H	TIP4P
7024	2104	2	-1.1128	14.35959800	1.98530800	79.69833600	#	O	TIP4P
7025	2104	3	0.5564	13.55625700	1.49993800	79.88619200	#	H	TIP4P
7026	2104	3	0.5564	14.76076000	1.51241100	78.96918000	#	H	TIP4P
7027	2105	2	-1.1128	4.75898300	15.21532100	93.16780600	#	O	TIP4P
7028	2105	3	0.5564	5.18289900	14.40207900	92.89364200	#	H	TIP4P
7029	2105	3	0.5564	5.46068900	15.86630000	93.15969600	#	H	TIP4P
7030	2106	2	-1.1128	26.89224100	27.59127300	93.33178500	#	O	TIP4P
7031	2106	3	0.5564	27.63330800	27.44259900	92.74446300	#	H	TIP4P
7032	2106	3	0.5564	26.77798700	26.75843900	93.78956900	#	H	TIP4P
7033	2107	2	-1.1128	20.18390400	14.58995400	88.18529000	#	O	TIP4P
7034	2107	3	0.5564	20.96924200	14.92447200	87.75219100	#	H	TIP4P
7035	2107	3	0.5564	19.56976300	14.42022200	87.47096900	#	H	TIP4P
7036	2108	2	-1.1128	31.07587700	27.14765800	80.23546700	#	O	TIP4P
7037	2108	3	0.5564	31.09652900	27.24696200	79.28365600	#	H	TIP4P
7038	2108	3	0.5564	31.14953100	28.04086600	80.57160100	#	H	TIP4P
7039	2109	2	-1.1128	20.67435600	12.82977600	80.82097200	#	O	TIP4P
7040	2109	3	0.5564	21.46458000	12.30076000	80.71179900	#	H	TIP4P
7041	2109	3	0.5564	20.96284500	13.72816000	80.66000000	#	H	TIP4P
7042	2110	2	-1.1128	28.11136200	9.81898600	90.49336800	#	O	TIP4P
7043	2110	3	0.5564	27.40144800	9.48328800	89.94604700	#	H	TIP4P
7044	2110	3	0.5564	27.68933700	10.45619400	91.06964300	#	H	TIP4P
7045	2111	2	-1.1128	9.21150800	24.00974000	93.99884300	#	O	TIP4P
7046	2111	3	0.5564	8.30579600	24.31943300	94.00161700	#	H	TIP4P
7047	2111	3	0.5564	9.13877700	23.05531700	93.99469500	#	H	TIP4P
7048	2112	2	-1.1128	8.95376400	24.17277400	85.65381700	#	O	TIP4P
7049	2112	3	0.5564	8.25674300	23.62477300	85.29313900	#	H	TIP4P
7050	2112	3	0.5564	9.42043100	24.50353600	84.88632100	#	H	TIP4P
7051	2113	2	-1.1128	17.13627300	25.07663000	83.95907000	#	O	TIP4P
7052	2113	3	0.5564	17.59786000	24.65847600	83.23221600	#	H	TIP4P
7053	2113	3	0.5564	17.31246400	24.51213300	84.71175200	#	H	TIP4P
7054	2114	2	-1.1128	27.90703400	6.45246800	93.20558600	#	O	TIP4P
7055	2114	3	0.5564	28.41796300	7.25960200	93.14460700	#	H	TIP4P
7056	2114	3	0.5564	28.56237600	5.75567600	93.24076000	#	H	TIP4P
7057	2115	2	-1.1128	18.72256100	16.34500700	92.82825300	#	O	TIP4P
7058	2115	3	0.5564	19.06513500	17.13679500	92.41358900	#	H	TIP4P
7059	2115	3	0.5564	17.78018500	16.49833000	92.89645500	#	H	TIP4P
7060	2116	2	-1.1128	31.08699000	4.49290500	83.72735000	#	O	TIP4P
7061	2116	3	0.5564	30.53654300	4.55326200	82.94658300	#	H	TIP4P
7062	2116	3	0.5564	31.14952000	5.39296400	84.04706200	#	H	TIP4P
7063	2117	2	-1.1128	19.54735200	26.60184200	87.22796300	#	O	TIP4P
7064	2117	3	0.5564	19.70599400	26.90090800	88.12329700	#	H	TIP4P
7065	2117	3	0.5564	19.76704900	25.67032700	87.24361800	#	H	TIP4P
7066	2118	2	-1.1128	14.88541400	29.81173800	91.78444800	#	O	TIP4P
7067	2118	3	0.5564	15.48190800	29.51656300	91.09648100	#	H	TIP4P
7068	2118	3	0.5564	14.05779400	29.37216700	91.58937500	#	H	TIP4P
7069	2119	2	-1.1128	10.65517800	21.92555900	85.40308000	#	O	TIP4P
7070	2119	3	0.5564	10.47618600	21.96296500	84.46350800	#	H	TIP4P
7071	2119	3	0.5564	10.66109500	20.99084000	85.60923000	#	H	TIP4P
7072	2120	2	-1.1128	6.31844100	31.64489800	78.47277900	#	O	TIP4P
7073	2120	3	0.5564	6.99308500	32.32061700	78.40576200	#	H	TIP4P
7074	2120	3	0.5564	6.68102200	30.89600400	77.99957400	#	H	TIP4P
7075	2121	2	-1.1128	18.06006900	13.25895800	93.15403300	#	O	TIP4P
7076	2121	3	0.5564	17.80553100	13.78832200	92.39824400	#	H	TIP4P
7077	2121	3	0.5564	18.85552300	13.67745000	93.48319500	#	H	TIP4P
7078	2122	2	-1.1128	22.96963100	25.96637200	81.71789200	#	O	TIP4P
7079	2122	3	0.5564	22.51163500	26.63902200	82.22189000	#	H	TIP4P
7080	2122	3	0.5564	22.38393600	25.20959600	81.73988300	#	H	TIP4P
7081	2123	2	-1.1128	22.08686700	12.41453200	87.61744400	#	O	TIP4P
7082	2123	3	0.5564	22.48487500	12.73166400	88.42815400	#	H	TIP4P
7083	2123	3	0.5564	21.23679600	12.06703100	87.88736000	#	H	TIP4P
7084	2124	2	-1.1128	30.56650400	14.18080400	91.67149100	#	O	TIP4P
7085	2124	3	0.5564	31.14951100	13.42972500	91.56096700	#	H	TIP4P
7086	2124	3	0.5564	31.14951100	14.90629000	91.89510700	#	H	TIP4P
7087	2125	2	-1.1128	15.48427600	30.02430300	80.48703500	#	O	TIP4P
7088	2125	3	0.5564	16.14273500	30.62596700	80.13966700	#	H	TIP4P
7089	2125	3	0.5564	14.66740100	30.52267300	80.46310800	#	H	TIP4P
7090	2126	2	-1.1128	25.33001200	5.56547200	91.80242000	#	O	TIP4P
7091	2126	3	0.5564	25.49586800	4.65325500	92.04029500	#	H	TIP4P
7092	2126	3	0.5564	26.07677000	5.81059700	91.25607100	#	H	TIP4P
7093	2127	2	-1.1128	8.43338600	21.71280900	82.22790100	#	O	TIP4P
7094	2127	3	0.5564	8.10145100	22.00352800	83.07733300	#	H	TIP4P
7095	2127	3	0.5564	7.65823400	21.39966900	81.76173100	#	H	TIP4P
7096	2128	2	-1.1128	25.00708200	8.24032000	84.01912000	#	O	TIP4P
7097	2128	3	0.5564	24.67932100	8.71960500	83.25814100	#	H	TIP4P
7098	2128	3	0.5564	25.20485800	7.36547700	83.68480500	#	H	TIP4P
7099	2129	2	-1.1128	13.52988900	11.68911400	80.78125200	#	O	TIP4P
7100	2129	3	0.5564	13.79296800	12.36095300	81.41026200	#	H	TIP4P
7101	2129	3	0.5564	12.58138000	11.79154900	80.70334800	#	H	TIP4P
7102	2130	2	-1.1128	19.97510000	1.49999000	90.07715500	#	O	TIP4P
7103	2130	3	0.5564	19.50188600	2.32743500	90.16453800	#	H	TIP4P
7104	2130	3	0.5564	20.88792900	1.72548700	90.25639000	#	H	TIP4P
7105	2131	2	-1.1128	13.78550100	8.71298300	79.81960200	#	O	TIP4P
7106	2131	3	0.5564	14.41591600	9.38700200	79.56562000	#	H	TIP4P
7107	2131	3	0.5564	14.28716700	7.89788700	79.80615300	#	H	TIP4P
7108	2132	2	-1.1128	15.37091300	16.22419000	90.09920700	#	O	TIP4P
7109	2132	3	0.5564	14.93369100	16.33825700	90.94304200	#	H	TIP4P
7110	2132	3	0.5564	16.30473500	16.26723500	90.30500800	#	H	TIP4P
7111	2133	2	-1.1128	14.27269900	20.95082700	78.71982600	#	O	TIP4P
7112	2133	3	0.5564	13.61306200	20.71762700	79.37307100	#	H	TIP4P
7113	2133	3	0.5564	14.09954800	21.87119100	78.52188500	#	H	TIP4P
7114	2134	2	-1.1128	28.98138300	2.38441900	83.60995200	#	O	TIP4P
7115	2134	3	0.5564	28.27683900	2.25500800	82.97504800	#	H	TIP4P
7116	2134	3	0.5564	29.28321600	1.49998700	83.81709600	#	H	TIP4P
7117	2135	2	-1.1128	11.86058900	29.19357800	88.77880100	#	O	TIP4P
7118	2135	3	0.5564	12.71341100	29.10814000	89.20497700	#	H	TIP4P
7119	2135	3	0.5564	11.51852700	28.30021700	88.74519000	#	H	TIP4P
7120	2136	2	-1.1128	15.78085500	19.38106700	81.06169500	#	O	TIP4P
7121	2136	3	0.5564	15.61034200	19.33296700	82.00235600	#	H	TIP4P
7122	2136	3	0.5564	15.87640300	20.31650400	80.88264100	#	H	TIP4P
7123	2137	2	-1.1128	1.63134500	13.95572000	88.53888500	#	O	TIP4P
7124	2137	3	0.5564	2.55530900	13.96723400	88.28910400	#	H	TIP4P
7125	2137	3	0.5564	1.49942600	14.77928700	89.00853000	#	H	TIP4P
7126	2138	2	-1.1128	5.67707400	13.54616500	83.40262900	#	O	TIP4P
7127	2138	3	0.5564	6.56087200	13.35537500	83.71684400	#	H	TIP4P
7128	2138	3	0.5564	5.42445600	12.76624200	82.90852800	#	H	TIP4P
7129	2139	2	-1.1128	14.76792400	16.82051700	93.64534400	#	O	TIP4P
7130	2139	3	0.5564	13.81955700	16.81080100	93.77471800	#	H	TIP4P
7131	2139	3	0.5564	15.06406300	15.97282000	93.97692100	#	H	TIP4P
7132	2140	2	-1.1128	9.07002600	28.25969200	78.57884800	#	O	TIP4P
7133	2140	3	0.5564	9.82061900	28.12695900	77.99986300	#	H	TIP4P
7134	2140	3	0.5564	8.39676900	28.64106400	78.01536600	#	H	TIP4P
7135	2141	2	-1.1128	4.71690800	24.57268700	90.46199100	#	O	TIP4P
7136	2141	3	0.5564	5.47312900	25.11908900	90.67601700	#	H	TIP4P
7137	2141	3	0.5564	4.21832100	25.09004600	89.82955000	#	H	TIP4P
7138	2142	2	-1.1128	5.91515200	19.94544500	89.43611300	#	O	TIP4P
7139	2142	3	0.5564	6.77397000	19.60040300	89.68026500	#	H	TIP4P
7140	2142	3	0.5564	5.37017900	19.16811400	89.31366700	#	H	TIP4P
7141	2143	2	-1.1128	18.52419000	27.58903200	91.12581000	#	O	TIP4P
7142	2143	3	0.5564	18.63756300	28.52994700	90.99143700	#	H	TIP4P
7143	2143	3	0.5564	17.79197300	27.35185000	90.55674500	#	H	TIP4P
7144	2144	2	-1.1128	28.21765300	3.92949100	89.94868200	#	O	TIP4P
7145	2144	3	0.5564	28.43815400	4.82341900	90.21041700	#	H	TIP4P
7146	2144	3	0.5564	27.61814900	3.62140200	90.62832100	#	H	TIP4P
7147	2145	2	-1.1128	20.12352000	19.95075200	85.67877100	#	O	TIP4P
7148	2145	3	0.5564	20.47519300	19.61588800	86.50364900	#	H	TIP4P
7149	2145	3	0.5564	20.19081100	20.90230000	85.75788400	#	H	TIP4P
7150	2146	2	-1.1128	13.58705800	8.22036300	87.55660000	#	O	TIP4P
7151	2146	3	0.5564	13.54938500	8.28584800	86.60238600	#	H	TIP4P
7152	2146	3	0.5564	13.05981000	7.44918600	87.76523100	#	H	TIP4P
7153	2147	2	-1.1128	23.73436000	13.25958400	82.21792700	#	O	TIP4P
7154	2147	3	0.5564	23.84747500	12.31851900	82.08438200	#	H	TIP4P
7155	2147	3	0.5564	24.23025900	13.45030400	83.01413100	#	H	TIP4P
7156	2148	2	-1.1128	6.79631500	26.00899300	82.72902600	#	O	TIP4P
7157	2148	3	0.5564	7.48121700	25.35638000	82.87475900	#	H	TIP4P
7158	2148	3	0.5564	7.20648900	26.66581000	82.16637200	#	H	TIP4P
7159	2149	2	-1.1128	16.44927000	12.83394000	87.14403500	#	O	TIP4P
7160	2149	3	0.5564	16.95003400	13.58389400	87.46502800	#	H	TIP4P
7161	2149	3	0.5564	16.15884500	12.38237600	87.93648400	#	H	TIP4P
7162	2150	2	-1.1128	19.77222700	25.45448200	92.97078800	#	O	TIP4P
7163	2150	3	0.5564	18.81770400	25.50170700	92.91704700	#	H	TIP4P
7164	2150	3	0.5564	20.05199400	26.36389400	93.07534200	#	H	TIP4P
7165	2151	2	-1.1128	29.38474300	1.49999700	80.33714100	#	O	TIP4P
7166	2151	3	0.5564	29.75612500	2.26522200	79.89812100	#	H	TIP4P
7167	2151	3	0.5564	28.43825200	1.63788100	80.30005300	#	H	TIP4P
7168	2152	2	-1.1128	9.74538800	16.22991000	80.12447600	#	O	TIP4P
7169	2152	3	0.5564	10.04053700	16.87950500	80.76255500	#	H	TIP4P
7170	2152	3	0.5564	9.62993800	16.72524900	79.31358700	#	H	TIP4P
7171	2153	2	-1.1128	14.43262600	14.68785500	87.38583900	#	O	TIP4P
7172	2153	3	0.5564	14.05769200	14.74680300	86.50710100	#	H	TIP4P
7173	2153	3	0.5564	13.93296800	13.99257100	87.81380400	#	H	TIP4P
7174	2154	2	-1.1128	7.01130700	30.44018400	84.71544100	#	O	TIP4P
7175	2154	3	0.5564	7.29259500	31.10882600	84.09091900	#	H	TIP4P
7176	2154	3	0.5564	7.82348200	30.12636600	85.11308600	#	H	TIP4P
7177	2155	2	-1.1128	14.66617600	23.80905000	91.25838500	#	O	TIP4P
7178	2155	3	0.5564	13.80400700	24.22485800	91.25951600	#	H	TIP4P
7179	2155	3	0.5564	15.17544300	24.31427400	90.62464400	#	H	TIP4P
7180	2156	2	-1.1128	12.48645700	15.25544900	81.13438000	#	O	TIP4P
7181	2156	3	0.5564	13.32887500	15.06889800	81.54882300	#	H	TIP4P
7182	2156	3	0.5564	11.99878900	14.43456100	81.20186200	#	H	TIP4P
7183	2157	2	-1.1128	16.43264600	7.94419700	92.91006800	#	O	TIP4P
7184	2157	3	0.5564	16.39483200	8.89996600	92.94623400	#	H	TIP4P
7185	2157	3	0.5564	15.51632800	7.66746300	92.91361800	#	H	TIP4P
7186	2158	2	-1.1128	11.74828600	15.56480300	77.99890600	#	O	TIP4P
7187	2158	3	0.5564	12.41341300	16.03778700	78.49903100	#	H	TIP4P
7188	2158	3	0.5564	11.59238300	14.76586300	78.50251300	#	H	TIP4P
7189	2159	2	-1.1128	22.01999100	23.26920400	86.77176800	#	O	TIP4P
7190	2159	3	0.5564	22.47826700	22.49532500	86.44416200	#	H	TIP4P
7191	2159	3	0.5564	21.28534700	22.91799200	87.27493800	#	H	TIP4P
7192	2160	2	-1.1128	10.72246000	12.80426900	94.00044100	#	O	TIP4P
7193	2160	3	0.5564	10.59966700	13.74753600	93.89367000	#	H	TIP4P
7194	2160	3	0.5564	9.83518300	12.44514500	93.99966400	#	H	TIP4P
7195	2161	2	-1.1128	14.41423500	33.13068700	78.20918200	#	O	TIP4P
7196	2161	3	0.5564	13.64087800	32.56663800	78.20903900	#	H	TIP4P
7197	2161	3	0.5564	14.90364800	32.86672500	78.98830300	#	H	TIP4P
7198	2162	2	-1.1128	1.49947000	15.31254700	85.57181700	#	O	TIP4P
7199	2162	3	0.5564	1.55873000	14.37565800	85.75879000	#	H	TIP4P
7200	2162	3	0.5564	1.56180100	15.73285400	86.42954000	#	H	TIP4P
7201	2163	2	-1.1128	12.32348600	32.25914100	92.10142700	#	O	TIP4P
7202	2163	3	0.5564	11.60558200	32.77767500	92.46470000	#	H	TIP4P
7203	2163	3	0.5564	12.10715400	31.35551200	92.33139700	#	H	TIP4P
7204	2164	2	-1.1128	3.12487800	17.69443100	78.54050200	#	O	TIP4P
7205	2164	3	0.5564	3.44537000	18.41629500	77.99973500	#	H	TIP4P
7206	2164	3	0.5564	3.76043700	16.99181000	78.40405000	#	H	TIP4P
7207	2165	2	-1.1128	5.51588600	9.27338200	83.57753400	#	O	TIP4P
7208	2165	3	0.5564	5.13653900	10.04221000	83.15182100	#	H	TIP4P
7209	2165	3	0.5564	4.76173500	8.78649200	83.90983800	#	H	TIP4P
7210	2166	2	-1.1128	6.99170100	23.79375000	80.58406000	#	O	TIP4P
7211	2166	3	0.5564	6.67968900	24.66332100	80.33360900	#	H	TIP4P
7212	2166	3	0.5564	7.94505800	23.87722100	80.60338800	#	H	TIP4P
7213	2167	2	-1.1128	9.17489000	22.81087900	88.67884600	#	O	TIP4P
7214	2167	3	0.5564	9.02992400	23.75594100	88.63329700	#	H	TIP4P
7215	2167	3	0.5564	9.63341200	22.59895700	87.86577900	#	H	TIP4P
7216	2168	2	-1.1128	11.35513900	30.72764300	83.37870800	#	O	TIP4P
7217	2168	3	0.5564	10.79097300	31.50001900	83.34150300	#	H	TIP4P
7218	2168	3	0.5564	12.24483500	31.08058500	83.38899900	#	H	TIP4P
7219	2169	2	-1.1128	26.82038100	13.21330200	82.07363000	#	O	TIP4P
7220	2169	3	0.5564	27.76119800	13.20450500	81.89751400	#	H	TIP4P
7221	2169	3	0.5564	26.59422600	12.29412600	82.21575800	#	H	TIP4P
7222	2170	2	-1.1128	29.38876800	24.46091600	93.35649300	#	O	TIP4P
7223	2170	3	0.5564	29.66872300	23.54984000	93.26818400	#	H	TIP4P
7224	2170	3	0.5564	28.51060800	24.40667000	93.73348800	#	H	TIP4P
7225	2171	2	-1.1128	6.22745700	15.02805900	81.15239000	#	O	TIP4P
7226	2171	3	0.5564	6.84260900	14.36031700	80.84917100	#	H	TIP4P
7227	2171	3	0.5564	5.37546100	14.73319300	80.83085000	#	H	TIP4P
7228	2172	2	-1.1128	21.95834300	14.67382700	93.72903500	#	O	TIP4P
7229	2172	3	0.5564	21.86251400	13.80681900	93.33489700	#	H	TIP4P
7230	2172	3	0.5564	22.87549300	14.71421700	94.00002600	#	H	TIP4P
7231	2173	2	-1.1128	5.96169700	21.67324600	78.72041100	#	O	TIP4P
7232	2173	3	0.5564	5.59587300	21.16008700	77.99994400	#	H	TIP4P
7233	2173	3	0.5564	6.18425900	21.02462400	79.38823300	#	H	TIP4P
7234	2174	2	-1.1128	5.88002500	2.66857800	91.33343400	#	O	TIP4P
7235	2174	3	0.5564	6.80620100	2.88331500	91.44441900	#	H	TIP4P
7236	2174	3	0.5564	5.85772400	1.71221800	91.30013600	#	H	TIP4P
7237	2175	2	-1.1128	6.98510500	16.29914200	84.59441300	#	O	TIP4P
7238	2175	3	0.5564	6.52707800	16.13556400	83.76998300	#	H	TIP4P
7239	2175	3	0.5564	6.61032600	15.66614800	85.20685900	#	H	TIP4P
7240	2176	2	-1.1128	17.15713800	5.06181300	90.09362400	#	O	TIP4P
7241	2176	3	0.5564	17.44150300	4.14833600	90.12409100	#	H	TIP4P
7242	2176	3	0.5564	17.40305200	5.41831100	90.94724400	#	H	TIP4P
7243	2177	2	-1.1128	14.95748200	7.40628100	84.39139200	#	O	TIP4P
7244	2177	3	0.5564	15.27484600	8.25502200	84.08292400	#	H	TIP4P
7245	2177	3	0.5564	14.11872000	7.28731100	83.94579700	#	H	TIP4P
7246	2178	2	-1.1128	19.08136700	8.56221200	92.36423600	#	O	TIP4P
7247	2178	3	0.5564	19.09629600	8.49231000	93.31876400	#	H	TIP4P
7248	2178	3	0.5564	19.03146700	7.65668100	92.05804300	#	H	TIP4P
7249	2179	2	-1.1128	12.12273100	1.49993900	85.79322500	#	O	TIP4P
7250	2179	3	0.5564	12.25740100	1.83389300	84.90633700	#	H	TIP4P
7251	2179	3	0.5564	12.99095900	1.52935900	86.19515300	#	H	TIP4P
7252	2180	2	-1.1128	15.40979000	19.15683000	85.38038700	#	O	TIP4P
7253	2180	3	0.5564	14.87185900	18.79781900	86.08605800	#	H	TIP4P
7254	2180	3	0.5564	14.94942500	19.95052200	85.10771500	#	H	TIP4P
7255	2181	2	-1.1128	13.25094800	10.10380200	93.07323100	#	O	TIP4P
7256	2181	3	0.5564	14.08462900	10.36862400	92.68454500	#	H	TIP4P
7257	2181	3	0.5564	13.20616200	9.15926700	92.92464000	#	H	TIP4P
7258	2182	2	-1.1128	22.35053800	15.84273700	82.70576800	#	O	TIP4P
7259	2182	3	0.5564	22.44581100	16.74666800	82.40566200	#	H	TIP4P
7260	2182	3	0.5564	22.88125500	15.79670100	83.50103600	#	H	TIP4P
7261	2183	2	-1.1128	17.58704000	21.28821400	78.35614000	#	O	TIP4P
7262	2183	3	0.5564	18.32273200	21.81283400	78.04028900	#	H	TIP4P
7263	2183	3	0.5564	16.81207400	21.72251000	77.99970500	#	H	TIP4P
7264	2184	2	-1.1128	19.79139100	6.91869900	85.82235300	#	O	TIP4P
7265	2184	3	0.5564	19.46931300	7.76432200	86.13447300	#	H	TIP4P
7266	2184	3	0.5564	19.19304800	6.68053600	85.11418900	#	H	TIP4P
7267	2185	2	-1.1128	5.94602800	30.83285800	90.73977400	#	O	TIP4P
7268	2185	3	0.5564	6.86601000	30.80857000	90.47657200	#	H	TIP4P
7269	2185	3	0.5564	5.95194700	30.56302500	91.65813500	#	H	TIP4P
7270	2186	2	-1.1128	9.95790400	1.74247000	79.27208400	#	O	TIP4P
7271	2186	3	0.5564	9.34996500	1.49943600	79.97035100	#	H	TIP4P
7272	2186	3	0.5564	10.82022200	1.49995400	79.60946300	#	H	TIP4P
7273	2187	2	-1.1128	10.36559100	10.32749100	86.12867800	#	O	TIP4P
7274	2187	3	0.5564	11.27008400	10.56496500	85.92439900	#	H	TIP4P
7275	2187	3	0.5564	9.93716800	11.16068200	86.32483700	#	H	TIP4P
7276	2188	2	-1.1128	22.92945400	18.69648200	78.01216900	#	O	TIP4P
7277	2188	3	0.5564	23.48586300	17.91770900	77.99975500	#	H	TIP4P
7278	2188	3	0.5564	23.54326800	19.42919100	78.06317000	#	H	TIP4P
7279	2189	2	-1.1128	14.87447700	17.86632900	78.17723100	#	O	TIP4P
7280	2189	3	0.5564	14.04334200	18.30671400	77.99972400	#	H	TIP4P
7281	2189	3	0.5564	15.52583600	18.56754700	78.16119700	#	H	TIP4P
7282	2190	2	-1.1128	8.16550300	20.17139900	86.42334700	#	O	TIP4P
7283	2190	3	0.5564	8.01935400	20.43762300	87.33109000	#	H	TIP4P
7284	2190	3	0.5564	7.88916500	20.92667600	85.90428500	#	H	TIP4P
7285	2191	2	-1.1128	13.54996100	18.88457600	89.37032400	#	O	TIP4P
7286	2191	3	0.5564	13.98880900	18.81705800	90.21831300	#	H	TIP4P
7287	2191	3	0.5564	14.18681400	18.54299700	88.74265100	#	H	TIP4P
7288	2192	2	-1.1128	5.92583500	32.73439700	88.75327300	#	O	TIP4P
7289	2192	3	0.5564	6.53247400	33.30044900	89.23056400	#	H	TIP4P
7290	2192	3	0.5564	5.18271100	33.30062000	88.54497400	#	H	TIP4P
7291	2193	2	-1.1128	3.61388100	14.19131700	78.78985600	#	O	TIP4P
7292	2193	3	0.5564	2.89726300	13.61549000	78.52318700	#	H	TIP4P
7293	2193	3	0.5564	4.14235400	14.29879800	77.99903700	#	H	TIP4P
7294	2194	2	-1.1128	4.58444900	15.43527900	89.58865300	#	O	TIP4P
7295	2194	3	0.5564	5.02011600	15.60184700	90.42452400	#	H	TIP4P
7296	2194	3	0.5564	3.86544400	16.06662100	89.56277600	#	H	TIP4P
7297	2195	2	-1.1128	1.49952900	16.17951600	80.58472100	#	O	TIP4P
7298	2195	3	0.5564	2.42575200	16.29036600	80.79932500	#	H	TIP4P
7299	2195	3	0.5564	1.49876800	15.62752700	79.80271200	#	H	TIP4P
7300	2196	2	-1.1128	2.23035000	21.74073700	88.28696800	#	O	TIP4P
7301	2196	3	0.5564	1.49890200	21.54684700	88.87316200	#	H	TIP4P
7302	2196	3	0.5564	2.13855700	22.67269200	88.08880900	#	H	TIP4P
7303	2197	2	-1.1128	27.45000200	19.73649000	80.89100100	#	O	TIP4P
7304	2197	3	0.5564	26.61954500	20.12751300	81.16242900	#	H	TIP4P
7305	2197	3	0.5564	27.21867300	18.84987100	80.61418600	#	H	TIP4P
7306	2198	2	-1.1128	21.96457500	21.81882300	81.27644000	#	O	TIP4P
7307	2198	3	0.5564	21.69084600	22.67173300	80.93902600	#	H	TIP4P
7308	2198	3	0.5564	21.15011600	21.39547000	81.54784400	#	H	TIP4P
7309	2199	2	-1.1128	20.61295200	3.22276300	87.60027200	#	O	TIP4P
7310	2199	3	0.5564	20.77738100	2.28044300	87.56523900	#	H	TIP4P
7311	2199	3	0.5564	20.74836600	3.52357400	86.70171400	#	H	TIP4P
7312	2200	2	-1.1128	11.20586400	17.85986100	91.43372700	#	O	TIP4P
7313	2200	3	0.5564	10.95963900	16.98045200	91.14694000	#	H	TIP4P
7314	2200	3	0.5564	12.05718300	17.74501400	91.85598100	#	H	TIP4P
7315	2201	2	-1.1128	10.74399200	25.48118000	87.28032000	#	O	TIP4P
7316	2201	3	0.5564	11.06973600	25.99367100	86.54040400	#	H	TIP4P
7317	2201	3	0.5564	10.19734600	26.09272400	87.77370000	#	H	TIP4P
7318	2202	2	-1.1128	10.69247000	12.11087300	89.62832400	#	O	TIP4P
7319	2202	3	0.5564	10.04895500	12.16869600	88.92208300	#	H	TIP4P
7320	2202	3	0.5564	11.53952300	12.17258900	89.18682200	#	H	TIP4P
7321	2203	2	-1.1128	4.47994500	2.39226900	88.98270400	#	O	TIP4P
7322	2203	3	0.5564	4.26297100	2.86215900	88.17749800	#	H	TIP4P
7323	2203	3	0.5564	4.13622200	1.50951600	88.84547000	#	H	TIP4P
7324	2204	2	-1.1128	29.73669100	33.12843300	81.92445200	#	O	TIP4P
7325	2204	3	0.5564	28.81712100	33.30043400	82.12703100	#	H	TIP4P
7326	2204	3	0.5564	29.81188100	33.30036700	80.98582700	#	H	TIP4P
7327	2205	2	-1.1128	20.70494600	33.11695700	83.97907700	#	O	TIP4P
7328	2205	3	0.5564	20.99749900	33.29870900	83.08598600	#	H	TIP4P
7329	2205	3	0.5564	20.05295000	32.42297800	83.88148300	#	H	TIP4P
7330	2206	2	-1.1128	16.87036000	27.84761700	81.43796700	#	O	TIP4P
7331	2206	3	0.5564	17.64236900	28.41234400	81.47427700	#	H	TIP4P
7332	2206	3	0.5564	17.21926700	26.95921700	81.51036100	#	H	TIP4P
7333	2207	2	-1.1128	25.13818300	27.04504800	89.23375900	#	O	TIP4P
7334	2207	3	0.5564	24.69285400	26.20977400	89.37599700	#	H	TIP4P
7335	2207	3	0.5564	25.15302200	27.15015900	88.28246300	#	H	TIP4P
7336	2208	2	-1.1128	22.81383200	6.33040000	82.80500800	#	O	TIP4P
7337	2208	3	0.5564	22.43549500	5.91003000	83.57726500	#	H	TIP4P
7338	2208	3	0.5564	22.18152200	7.00840500	82.56683700	#	H	TIP4P
7339	2209	2	-1.1128	2.45655500	26.83517400	79.30663200	#	O	TIP4P
7340	2209	3	0.5564	1.49991400	26.86728900	79.31272700	#	H	TIP4P
7341	2209	3	0.5564	2.66503000	25.90248900	79.25307400	#	H	TIP4P
7342	2210	2	-1.1128	30.69179700	15.65179900	89.28796800	#	O	TIP4P
7343	2210	3	0.5564	31.14964100	16.49239400	89.28469500	#	H	TIP4P
7344	2210	3	0.5564	29.76326700	15.88427600	89.29201600	#	H	TIP4P
7345	2211	2	-1.1128	4.38308400	9.35233200	90.11613200	#	O	TIP4P
7346	2211	3	0.5564	4.83170400	8.71322300	90.66976700	#	H	TIP4P
7347	2211	3	0.5564	5.05373500	10.00317100	89.90908900	#	H	TIP4P
7348	2212	2	-1.1128	4.50870500	32.71552400	83.45623800	#	O	TIP4P
7349	2212	3	0.5564	5.25531600	33.30046700	83.58525700	#	H	TIP4P
7350	2212	3	0.5564	3.75367200	33.30046800	83.39300500	#	H	TIP4P
7351	2213	2	-1.1128	8.91747000	33.28454900	81.64909700	#	O	TIP4P
7352	2213	3	0.5564	8.40856700	32.96175200	82.39277100	#	H	TIP4P
7353	2213	3	0.5564	8.29543600	33.30116100	80.92175200	#	H	TIP4P
7354	2214	2	-1.1128	10.39295600	17.29890800	94.00023000	#	O	TIP4P
7355	2214	3	0.5564	9.47605800	17.02408100	94.00037700	#	H	TIP4P
7356	2214	3	0.5564	10.88888700	16.48019900	94.00022700	#	H	TIP4P
7357	2215	2	-1.1128	7.30001800	17.44046700	88.06149100	#	O	TIP4P
7358	2215	3	0.5564	6.61031100	16.88201900	88.42019900	#	H	TIP4P
7359	2215	3	0.5564	6.86944200	17.93624000	87.36503800	#	H	TIP4P
7360	2216	2	-1.1128	9.08740200	30.82286400	79.57495900	#	O	TIP4P
7361	2216	3	0.5564	8.37909000	30.48560000	80.12339200	#	H	TIP4P
7362	2216	3	0.5564	9.76414400	31.09244600	80.19590800	#	H	TIP4P
7363	2217	2	-1.1128	23.33786500	3.50897300	82.58575200	#	O	TIP4P
7364	2217	3	0.5564	24.24044200	3.23283800	82.74492600	#	H	TIP4P
7365	2217	3	0.5564	22.91741900	2.74220900	82.19648400	#	H	TIP4P
7366	2218	2	-1.1128	3.54082100	7.04673800	79.56494900	#	O	TIP4P
7367	2218	3	0.5564	4.10529100	6.71262900	78.86782900	#	H	TIP4P
7368	2218	3	0.5564	3.69164400	7.99198000	79.56356800	#	H	TIP4P
7369	2219	2	-1.1128	6.58600000	27.96326000	91.00980500	#	O	TIP4P
7370	2219	3	0.5564	5.84023500	27.70073800	91.54938700	#	H	TIP4P
7371	2219	3	0.5564	6.20563200	28.15868100	90.15344000	#	H	TIP4P
7372	2220	2	-1.1128	9.51373700	13.32214500	79.57830400	#	O	TIP4P
7373	2220	3	0.5564	9.49154200	13.51960200	80.51465300	#	H	TIP4P
7374	2220	3	0.5564	10.07730000	12.55156000	79.50883200	#	H	TIP4P
7375	2221	2	-1.1128	20.17229300	26.53248700	80.78015900	#	O	TIP4P
7376	2221	3	0.5564	19.64998300	25.76844100	81.02440800	#	H	TIP4P
7377	2221	3	0.5564	19.61830500	27.01593500	80.16729200	#	H	TIP4P
7378	2222	2	-1.1128	3.98548500	11.81338200	93.49012500	#	O	TIP4P
7379	2222	3	0.5564	3.82357100	12.00321600	92.56601600	#	H	TIP4P
7380	2222	3	0.5564	3.14864800	11.48369300	93.81760300	#	H	TIP4P
7381	2223	2	-1.1128	6.20963500	19.45932600	92.67678300	#	O	TIP4P
7382	2223	3	0.5564	5.60183200	20.02902600	92.20535100	#	H	TIP4P
7383	2223	3	0.5564	6.11164500	18.60449900	92.25737800	#	H	TIP4P
7384	2224	2	-1.1128	16.77482500	28.26958800	94.00037800	#	O	TIP4P
7385	2224	3	0.5564	17.14837800	28.78940400	93.28870300	#	H	TIP4P
7386	2224	3	0.5564	15.84486600	28.49632000	94.00063900	#	H	TIP4P
7387	2225	2	-1.1128	19.36993800	4.64875900	92.99723800	#	O	TIP4P
7388	2225	3	0.5564	19.47972300	3.88498900	92.43081600	#	H	TIP4P
7389	2225	3	0.5564	20.09975700	5.22423300	92.76827100	#	H	TIP4P
7390	2226	2	-1.1128	21.44591300	18.26340500	91.62297300	#	O	TIP4P
7391	2226	3	0.5564	21.34483900	18.68919800	92.47427600	#	H	TIP4P
7392	2226	3	0.5564	22.09758300	18.79426000	91.16498900	#	H	TIP4P
7393	2227	2	-1.1128	15.20098200	26.15296200	92.67948900	#	O	TIP4P
7394	2227	3	0.5564	16.14044200	26.01648400	92.55693100	#	H	TIP4P
7395	2227	3	0.5564	14.96498000	26.80453400	92.01919500	#	H	TIP4P
7396	2228	2	-1.1128	10.38477000	3.80734400	85.85847300	#	O	TIP4P
7397	2228	3	0.5564	9.56078700	4.18095600	86.17104100	#	H	TIP4P
7398	2228	3	0.5564	10.27800800	3.75146900	84.90888800	#	H	TIP4P
7399	2229	2	-1.1128	8.92038600	8.99778100	84.15004800	#	O	TIP4P
7400	2229	3	0.5564	8.24201700	8.91551700	83.47976500	#	H	TIP4P
7401	2229	3	0.5564	8.54175700	8.58557000	84.92655000	#	H	TIP4P
7402	2230	2	-1.1128	11.60610300	33.10675200	81.00574300	#	O	TIP4P
7403	2230	3	0.5564	12.12000400	32.47839300	80.49849300	#	H	TIP4P
7404	2230	3	0.5564	12.14995000	33.30084700	81.76914900	#	H	TIP4P
7405	2231	2	-1.1128	19.68443400	8.31984100	80.80207100	#	O	TIP4P
7406	2231	3	0.5564	19.72945300	7.79094200	81.59860800	#	H	TIP4P
7407	2231	3	0.5564	18.76193700	8.56431300	80.72814500	#	H	TIP4P
7408	2232	2	-1.1128	13.89978300	11.01342400	86.60444300	#	O	TIP4P
7409	2232	3	0.5564	13.46483000	11.31415300	87.40232100	#	H	TIP4P
7410	2232	3	0.5564	14.10590400	11.81655600	86.12619000	#	H	TIP4P
7411	2233	2	-1.1128	20.36247400	23.07511700	83.59168600	#	O	TIP4P
7412	2233	3	0.5564	19.71664500	23.25013500	84.27616000	#	H	TIP4P
7413	2233	3	0.5564	20.31199200	23.83649100	83.01376400	#	H	TIP4P
7414	2234	2	-1.1128	28.15464600	27.03232600	79.16052400	#	O	TIP4P
7415	2234	3	0.5564	28.04444500	27.95404400	79.39402700	#	H	TIP4P
7416	2234	3	0.5564	27.32946100	26.79104900	78.73970800	#	H	TIP4P
7417	2235	2	-1.1128	20.25930300	24.77922000	89.82708800	#	O	TIP4P
7418	2235	3	0.5564	19.49431400	25.16958700	90.24974300	#	H	TIP4P
7419	2235	3	0.5564	19.92530700	23.98246100	89.41495400	#	H	TIP4P
7420	2236	2	-1.1128	10.81515000	11.60993300	82.80331300	#	O	TIP4P
7421	2236	3	0.5564	10.22133900	11.33194300	83.50069500	#	H	TIP4P
7422	2236	3	0.5564	11.53271700	12.04903600	83.25995100	#	H	TIP4P
7423	2237	2	-1.1128	8.68796400	21.73775800	78.36579500	#	O	TIP4P
7424	2237	3	0.5564	8.86483800	21.63230700	79.30058200	#	H	TIP4P
7425	2237	3	0.5564	8.77106000	20.85515700	78.00476600	#	H	TIP4P
7426	2238	2	-1.1128	2.00795100	10.08851900	81.30478900	#	O	TIP4P
7427	2238	3	0.5564	2.90156300	10.30468600	81.57117800	#	H	TIP4P
7428	2238	3	0.5564	1.49980400	10.87324400	81.51027500	#	H	TIP4P
7429	2239	2	-1.1128	25.63788800	27.98299500	85.36327300	#	O	TIP4P
7430	2239	3	0.5564	25.35387500	27.06929100	85.38997200	#	H	TIP4P
7431	2239	3	0.5564	26.59398400	27.93713000	85.36031500	#	H	TIP4P
7432	2240	2	-1.1128	7.05094600	3.89994800	83.46776500	#	O	TIP4P
7433	2240	3	0.5564	6.90363200	2.96349200	83.33517000	#	H	TIP4P
7434	2240	3	0.5564	7.61776300	3.94707400	84.23765500	#	H	TIP4P
7435	2241	2	-1.1128	15.60006500	8.20093900	90.18821100	#	O	TIP4P
7436	2241	3	0.5564	14.70809300	8.54115800	90.11843000	#	H	TIP4P
7437	2241	3	0.5564	15.49417400	7.24964300	90.19563900	#	H	TIP4P
7438	2242	2	-1.1128	22.02397300	27.82060100	90.80265700	#	O	TIP4P
7439	2242	3	0.5564	21.33960500	27.16313100	90.67773400	#	H	TIP4P
7440	2242	3	0.5564	22.80193800	27.31535000	91.03871300	#	H	TIP4P
7441	2243	2	-1.1128	7.72849300	26.64548000	85.29123300	#	O	TIP4P
7442	2243	3	0.5564	8.22012400	26.93705800	86.05903000	#	H	TIP4P
7443	2243	3	0.5564	7.13543200	27.37107400	85.09623800	#	H	TIP4P
7444	2244	2	-1.1128	27.09876900	15.80331100	83.29012800	#	O	TIP4P
7445	2244	3	0.5564	27.92810500	15.39947700	83.54576700	#	H	TIP4P
7446	2244	3	0.5564	26.43580700	15.32716600	83.79012500	#	H	TIP4P
7447	2245	2	-1.1128	21.85197100	21.92406600	91.33655200	#	O	TIP4P
7448	2245	3	0.5564	20.95749100	22.26401900	91.31269100	#	H	TIP4P
7449	2245	3	0.5564	21.87590500	21.36586400	92.11377100	#	H	TIP4P
7450	2246	2	-1.1128	25.11361400	8.68194800	92.73836000	#	O	TIP4P
7451	2246	3	0.5564	25.98401100	8.36429900	92.49806800	#	H	TIP4P
7452	2246	3	0.5564	25.10531000	9.59635600	92.45548300	#	H	TIP4P
7453	2247	2	-1.1128	16.55449400	24.32014300	80.02092100	#	O	TIP4P
7454	2247	3	0.5564	15.87424600	24.98316800	80.13878300	#	H	TIP4P
7455	2247	3	0.5564	16.07669700	23.49216500	79.97199800	#	H	TIP4P
7456	2248	2	-1.1128	4.51317000	21.08702300	86.60836700	#	O	TIP4P
7457	2248	3	0.5564	4.77300600	21.69558100	85.91672100	#	H	TIP4P
7458	2248	3	0.5564	5.32037300	20.62729200	86.83924000	#	H	TIP4P
7459	2249	2	-1.1128	10.59011500	26.09072600	79.69569400	#	O	TIP4P
7460	2249	3	0.5564	9.95903700	25.92500100	80.39605600	#	H	TIP4P
7461	2249	3	0.5564	10.84112800	25.21984700	79.38780700	#	H	TIP4P
7462	2250	2	-1.1128	19.46228400	5.53249500	80.05046900	#	O	TIP4P
7463	2250	3	0.5564	18.57359400	5.88300400	79.99043000	#	H	TIP4P
7464	2250	3	0.5564	19.34157200	4.58825800	80.15084800	#	H	TIP4P
7465	2251	2	-1.1128	29.78603300	21.89473500	79.11787800	#	O	TIP4P
7466	2251	3	0.5564	29.35796500	21.40031900	79.81683600	#	H	TIP4P
7467	2251	3	0.5564	29.61844600	21.38440300	78.32559800	#	H	TIP4P
7468	2252	2	-1.1128	1.49986000	9.59055700	84.72285900	#	O	TIP4P
7469	2252	3	0.5564	1.84297600	9.80932800	85.58925500	#	H	TIP4P
7470	2252	3	0.5564	1.95168900	8.78149200	84.48307800	#	H	TIP4P
7471	2253	2	-1.1128	1.53967800	4.83035600	83.61011300	#	O	TIP4P
7472	2253	3	0.5564	1.49986800	5.70787200	83.99039300	#	H	TIP4P
7473	2253	3	0.5564	1.49994700	4.24052700	84.36294400	#	H	TIP4P
7474	2254	2	-1.1128	9.86906300	5.80394800	89.01942700	#	O	TIP4P
7475	2254	3	0.5564	10.50866700	5.33927500	88.47978000	#	H	TIP4P
7476	2254	3	0.5564	9.11513200	5.92971600	88.44323100	#	H	TIP4P
7477	2255	2	-1.1128	2.11397900	7.80436300	89.98402700	#	O	TIP4P
7478	2255	3	0.5564	1.49994900	7.12975800	90.27403900	#	H	TIP4P
7479	2255	3	0.5564	1.64540600	8.27505700	89.29473900	#	H	TIP4P
7480	2256	2	-1.1128	13.53633400	25.92641900	89.11581100	#	O	TIP4P
7481	2256	3	0.5564	14.00636800	26.69290800	89.44413200	#	H	TIP4P
7482	2256	3	0.5564	13.21538200	26.19260300	88.25420300	#	H	TIP4P
7483	2257	2	-1.1128	7.90224500	1.50314700	93.80607000	#	O	TIP4P
7484	2257	3	0.5564	8.14145100	2.40942400	94.00016700	#	H	TIP4P
7485	2257	3	0.5564	6.94511300	1.49994700	93.81707300	#	H	TIP4P
7486	2258	2	-1.1128	25.08980800	2.51141400	79.93495700	#	O	TIP4P
7487	2258	3	0.5564	24.36938300	1.88735700	80.02312000	#	H	TIP4P
7488	2258	3	0.5564	24.66055800	3.35443600	79.78904800	#	H	TIP4P
7489	2259	2	-1.1128	3.65574300	6.00927800	92.53901500	#	O	TIP4P
7490	2259	3	0.5564	4.21144800	6.78865300	92.53924700	#	H	TIP4P
7491	2259	3	0.5564	4.26331000	5.28129300	92.66989900	#	H	TIP4P
7492	2260	2	-1.1128	19.11575000	12.34299200	89.65642600	#	O	TIP4P
7493	2260	3	0.5564	18.56900000	13.10542500	89.84613900	#	H	TIP4P
7494	2260	3	0.5564	18.68862200	11.92087200	88.91103500	#	H	TIP4P
7495	2261	2	-1.1128	17.46001900	1.54858500	91.83386700	#	O	TIP4P
7496	2261	3	0.5564	16.84504100	1.49999400	91.10197000	#	H	TIP4P
7497	2261	3	0.5564	16.90829400	1.49992400	92.61454800	#	H	TIP4P
7498	2262	2	-1.1128	24.18998900	25.06412700	78.84085700	#	O	TIP4P
7499	2262	3	0.5564	25.14609300	25.10976300	78.84471800	#	H	TIP4P
7500	2262	3	0.5564	23.97232400	24.66183100	78.00001800	#	H	TIP4P
7501	2263	2	-1.1128	13.24260300	5.17935400	85.66181300	#	O	TIP4P
7502	2263	3	0.5564	13.29257400	4.22988300	85.77244300	#	H	TIP4P
7503	2263	3	0.5564	12.54074500	5.31006300	85.02420700	#	H	TIP4P
7504	2264	2	-1.1128	7.18767200	5.54103900	90.58304000	#	O	TIP4P
7505	2264	3	0.5564	6.67110500	5.96052700	91.27109600	#	H	TIP4P
7506	2264	3	0.5564	8.02274400	5.33377900	91.00247900	#	H	TIP4P
7507	2265	2	-1.1128	6.88177100	6.58801600	84.02284600	#	O	TIP4P
7508	2265	3	0.5564	6.24089600	6.54630400	83.31307800	#	H	TIP4P
7509	2265	3	0.5564	6.38608200	6.35477000	84.80777900	#	H	TIP4P
7510	2266	2	-1.1128	14.01915600	29.08203900	82.71406100	#	O	TIP4P
7511	2266	3	0.5564	14.62671300	29.70041200	83.11991900	#	H	TIP4P
7512	2266	3	0.5564	13.56769800	28.67046600	83.45096300	#	H	TIP4P
7513	2267	2	-1.1128	11.17056000	13.67544400	86.91355100	#	O	TIP4P
7514	2267	3	0.5564	11.76210600	13.24488200	86.29636200	#	H	TIP4P
7515	2267	3	0.5564	10.38818500	13.87242700	86.39846000	#	H	TIP4P
7516	2268	2	-1.1128	20.03577500	4.59322100	83.31297400	#	O	TIP4P
7517	2268	3	0.5564	19.68636600	5.30906000	82.78220100	#	H	TIP4P
7518	2268	3	0.5564	20.57081500	4.08280200	82.70516100	#	H	TIP4P
7519	2269	2	-1.1128	9.54993200	28.74892300	82.71165600	#	O	TIP4P
7520	2269	3	0.5564	8.99877600	29.52672900	82.62519000	#	H	TIP4P
7521	2269	3	0.5564	9.11830100	28.22253900	83.38459500	#	H	TIP4P
7522	2270	2	-1.1128	19.50384100	17.32476100	89.70532700	#	O	TIP4P
7523	2270	3	0.5564	18.98121800	16.52313700	89.72759800	#	H	TIP4P
7524	2270	3	0.5564	20.04621600	17.23594800	88.92163600	#	H	TIP4P
7525	2271	2	-1.1128	21.14931800	17.32587400	79.78716500	#	O	TIP4P
7526	2271	3	0.5564	20.38159200	16.98210300	79.33038300	#	H	TIP4P
7527	2271	3	0.5564	21.79431100	16.62040100	79.73694100	#	H	TIP4P
7528	2272	2	-1.1128	20.60856900	30.32255200	89.03862900	#	O	TIP4P
7529	2272	3	0.5564	19.72140000	29.98227100	88.92298800	#	H	TIP4P
7530	2272	3	0.5564	21.17890300	29.59688500	88.78494200	#	H	TIP4P
7531	2273	2	-1.1128	19.68243300	14.00753800	78.18167700	#	O	TIP4P
7532	2273	3	0.5564	19.22485900	14.83851600	78.05387200	#	H	TIP4P
7533	2273	3	0.5564	19.06860300	13.47008700	78.68226700	#	H	TIP4P
7534	2274	2	-1.1128	29.45156700	18.32739900	91.52651300	#	O	TIP4P
7535	2274	3	0.5564	29.82581900	17.49530000	91.81595900	#	H	TIP4P
7536	2274	3	0.5564	29.53969200	18.31159900	90.57350900	#	H	TIP4P
7537	2275	2	-1.1128	30.56779200	30.48775800	87.45247800	#	O	TIP4P
7538	2275	3	0.5564	31.14961500	29.75083800	87.63866100	#	H	TIP4P
7539	2275	3	0.5564	31.14958300	31.17890100	87.13613600	#	H	TIP4P
7540	2276	2	-1.1128	3.62096600	32.15399900	93.40947800	#	O	TIP4P
7541	2276	3	0.5564	3.41615800	31.37167000	92.89737700	#	H	TIP4P
7542	2276	3	0.5564	4.53468800	32.34629900	93.19884900	#	H	TIP4P
7543	2277	2	-1.1128	12.21834500	5.05193200	82.25780600	#	O	TIP4P
7544	2277	3	0.5564	12.20591300	4.09537200	82.22508400	#	H	TIP4P
7545	2277	3	0.5564	13.14488500	5.27717200	82.34160200	#	H	TIP4P
7546	2278	2	-1.1128	24.95827400	6.17154800	86.57776500	#	O	TIP4P
7547	2278	3	0.5564	25.62977300	6.81273500	86.34495700	#	H	TIP4P
7548	2278	3	0.5564	25.08830600	5.45257500	85.95937900	#	H	TIP4P
7549	2279	2	-1.1128	7.16221000	5.56979000	93.94852700	#	O	TIP4P
7550	2279	3	0.5564	6.47386600	6.23290300	94.00044400	#	H	TIP4P
7551	2279	3	0.5564	6.69115200	4.74152900	93.85732000	#	H	TIP4P
7552	2280	2	-1.1128	6.52702700	18.95668400	83.96772100	#	O	TIP4P
7553	2280	3	0.5564	6.47713300	19.88186900	83.72735900	#	H	TIP4P
7554	2280	3	0.5564	6.23375900	18.92919000	84.87847300	#	H	TIP4P
7555	2281	2	-1.1128	9.83925600	4.17763700	77.99993200	#	O	TIP4P
7556	2281	3	0.5564	9.52069200	5.08027100	77.99995400	#	H	TIP4P
7557	2281	3	0.5564	10.79293000	4.25972000	77.99990800	#	H	TIP4P
7558	2282	2	-1.1128	24.38633000	14.38411500	89.53102200	#	O	TIP4P
7559	2282	3	0.5564	24.47449700	14.51549700	90.47505500	#	H	TIP4P
7560	2282	3	0.5564	24.93241300	13.62080400	89.34291900	#	H	TIP4P
7561	2283	2	-1.1128	16.11425600	33.30047400	87.76275800	#	O	TIP4P
7562	2283	3	0.5564	16.56161100	33.30036900	88.60898800	#	H	TIP4P
7563	2283	3	0.5564	15.18434400	33.24535100	87.98288600	#	H	TIP4P
7564	2284	2	-1.1128	3.34289200	27.08513700	88.14126100	#	O	TIP4P
7565	2284	3	0.5564	3.94803500	27.57989300	88.69375500	#	H	TIP4P
7566	2284	3	0.5564	2.52596700	27.06347300	88.63965300	#	H	TIP4P
7567	2285	2	-1.1128	28.76511200	29.85692600	81.76593100	#	O	TIP4P
7568	2285	3	0.5564	29.69695400	30.07451000	81.74225800	#	H	TIP4P
7569	2285	3	0.5564	28.32306500	30.66648000	81.51010200	#	H	TIP4P
7570	2286	2	-1.1128	4.58245500	24.04859100	78.58299100	#	O	TIP4P
7571	2286	3	0.5564	4.04712000	23.51089800	77.99943700	#	H	TIP4P
7572	2286	3	0.5564	5.19114800	24.50241000	78.00009000	#	H	TIP4P
7573	2287	2	-1.1128	3.25504000	2.97347500	93.77436600	#	O	TIP4P
7574	2287	3	0.5564	2.47581700	3.29558500	93.32127900	#	H	TIP4P
7575	2287	3	0.5564	3.34345400	2.06569100	93.48394800	#	H	TIP4P
7576	2288	2	-1.1128	21.97192400	31.92568900	80.19211600	#	O	TIP4P
7577	2288	3	0.5564	22.72232000	32.03504000	80.77622300	#	H	TIP4P
7578	2288	3	0.5564	21.69481400	32.81879100	79.98764100	#	H	TIP4P
7579	2289	2	-1.1128	6.12259400	8.60153700	87.54297200	#	O	TIP4P
7580	2289	3	0.5564	5.82846700	7.98301800	88.21166900	#	H	TIP4P
7581	2289	3	0.5564	6.64452600	8.07251200	86.93968800	#	H	TIP4P
7582	2290	2	-1.1128	20.15542100	29.54102400	85.70657700	#	O	TIP4P
7583	2290	3	0.5564	19.49128600	29.18982100	86.29971600	#	H	TIP4P
7584	2290	3	0.5564	20.13694100	30.48597300	85.85811000	#	H	TIP4P
7585	2291	2	-1.1128	7.90104300	11.43049800	81.33216800	#	O	TIP4P
7586	2291	3	0.5564	8.68629300	10.89564400	81.21579000	#	H	TIP4P
7587	2291	3	0.5564	7.65899700	11.30498100	82.24971400	#	H	TIP4P
7588	2292	2	-1.1128	11.86056500	28.82465800	80.95174400	#	O	TIP4P
7589	2292	3	0.5564	12.06262200	29.75907300	80.90408000	#	H	TIP4P
7590	2292	3	0.5564	11.12426200	28.70741600	80.35145800	#	H	TIP4P
7591	2293	2	-1.1128	12.55136900	32.70874300	85.58390400	#	O	TIP4P
7592	2293	3	0.5564	13.20156600	33.28378600	85.98739100	#	H	TIP4P
7593	2293	3	0.5564	11.99475500	33.29681200	85.07342500	#	H	TIP4P
7594	2294	2	-1.1128	26.16650900	1.84964300	92.15019900	#	O	TIP4P
7595	2294	3	0.5564	25.37660400	1.62418400	91.65882300	#	H	TIP4P
7596	2294	3	0.5564	25.85172400	2.05050800	93.03155900	#	H	TIP4P
7597	2295	2	-1.1128	1.65523500	13.68074900	81.83395800	#	O	TIP4P
7598	2295	3	0.5564	1.50062500	14.27487700	82.56835500	#	H	TIP4P
7599	2295	3	0.5564	2.60026600	13.52887200	81.84298600	#	H	TIP4P
7600	2296	2	-1.1128	5.28505900	24.22026700	84.20861500	#	O	TIP4P
7601	2296	3	0.5564	5.75003700	24.68612200	84.90360100	#	H	TIP4P
7602	2296	3	0.5564	5.80885400	23.43403000	84.05466000	#	H	TIP4P
7603	2297	2	-1.1128	29.03184800	30.06379400	84.77969000	#	O	TIP4P
7604	2297	3	0.5564	28.82043300	29.53979400	85.55232100	#	H	TIP4P
7605	2297	3	0.5564	28.28543400	30.65447700	84.67873500	#	H	TIP4P
7606	2298	2	-1.1128	24.19341400	17.19978100	89.47416900	#	O	TIP4P
7607	2298	3	0.5564	24.13186800	18.15392500	89.42886400	#	H	TIP4P
7608	2298	3	0.5564	23.28688000	16.90460700	89.55960600	#	H	TIP4P
7609	2299	2	-1.1128	7.63495200	18.21255900	81.22646600	#	O	TIP4P
7610	2299	3	0.5564	7.87441100	18.90936600	80.61544200	#	H	TIP4P
7611	2299	3	0.5564	7.36007700	17.48643500	80.66662900	#	H	TIP4P
7612	2300	2	-1.1128	21.74870100	8.78951100	88.42271800	#	O	TIP4P
7613	2300	3	0.5564	21.11572200	8.28671200	88.93532200	#	H	TIP4P
7614	2300	3	0.5564	21.21286400	9.31772200	87.83102300	#	H	TIP4P
7615	2301	2	-1.1128	16.54166200	5.27383100	83.67318700	#	O	TIP4P
7616	2301	3	0.5564	15.89013000	4.82546700	84.21236100	#	H	TIP4P
7617	2301	3	0.5564	16.09535200	5.43506500	82.84189800	#	H	TIP4P
7618	2302	2	-1.1128	4.01158100	18.21926100	86.59959100	#	O	TIP4P
7619	2302	3	0.5564	4.15072100	17.53716700	87.25656800	#	H	TIP4P
7620	2302	3	0.5564	3.47626000	17.79871300	85.92668500	#	H	TIP4P
7621	2303	2	-1.1128	1.49993100	18.10831500	87.81367300	#	O	TIP4P
7622	2303	3	0.5564	1.49996200	17.48980000	88.54420100	#	H	TIP4P
7623	2303	3	0.5564	1.86989800	18.91177500	88.17947000	#	H	TIP4P
7624	2304	2	-1.1128	17.71267400	13.74988800	83.88212400	#	O	TIP4P
7625	2304	3	0.5564	17.45343800	13.93609800	84.78454000	#	H	TIP4P
7626	2304	3	0.5564	17.88869700	12.80906300	83.87227000	#	H	TIP4P
7627	2305	2	-1.1128	11.15042500	6.87644800	79.29602600	#	O	TIP4P
7628	2305	3	0.5564	11.88774800	7.05849700	78.71340700	#	H	TIP4P
7629	2305	3	0.5564	11.46073700	6.16978200	79.86220600	#	H	TIP4P
7630	2306	2	-1.1128	10.40427700	9.44668600	88.75823700	#	O	TIP4P
7631	2306	3	0.5564	11.34174500	9.44689500	88.56488600	#	H	TIP4P
7632	2306	3	0.5564	10.15302800	8.52357300	88.72713000	#	H	TIP4P
7633	2307	2	-1.1128	26.30104800	19.96547800	78.05113200	#	O	TIP4P
7634	2307	3	0.5564	26.03711700	20.88414600	77.99993300	#	H	TIP4P
7635	2307	3	0.5564	27.25581800	19.99319900	78.11340300	#	H	TIP4P
7636	2308	2	-1.1128	22.63818400	11.11011700	84.99105300	#	O	TIP4P
7637	2308	3	0.5564	23.15966200	10.78166600	84.25865200	#	H	TIP4P
7638	2308	3	0.5564	21.92405000	11.59586800	84.57839000	#	H	TIP4P
7639	2309	2	-1.1128	6.04863700	29.14642500	82.42784400	#	O	TIP4P
7640	2309	3	0.5564	5.35726100	29.77987900	82.62011100	#	H	TIP4P
7641	2309	3	0.5564	6.30717200	29.33948600	81.52666800	#	H	TIP4P
7642	2310	2	-1.1128	28.77247600	28.75499300	89.37431900	#	O	TIP4P
7643	2310	3	0.5564	29.40045800	28.13129800	89.00979800	#	H	TIP4P
7644	2310	3	0.5564	28.46752600	28.34361100	90.18302200	#	H	TIP4P
7645	2311	2	-1.1128	7.43357300	15.36337300	78.24384100	#	O	TIP4P
7646	2311	3	0.5564	6.52456000	15.60698400	78.41871700	#	H	TIP4P
7647	2311	3	0.5564	7.41202100	14.41163400	78.14404200	#	H	TIP4P
7648	2312	2	-1.1128	15.65757700	21.89841600	89.40249600	#	O	TIP4P
7649	2312	3	0.5564	15.21324500	21.06963600	89.22382200	#	H	TIP4P
7650	2312	3	0.5564	16.57713000	21.65810200	89.51609100	#	H	TIP4P
7651	2313	2	-1.1128	30.78967000	21.27760000	91.51067400	#	O	TIP4P
7652	2313	3	0.5564	30.61937000	21.08993700	92.43371900	#	H	TIP4P
7653	2313	3	0.5564	31.14962100	20.46190500	91.16238000	#	H	TIP4P
7654	2314	2	-1.1128	9.92774400	6.74955100	92.59472800	#	O	TIP4P
7655	2314	3	0.5564	9.76247300	7.29729400	91.82733300	#	H	TIP4P
7656	2314	3	0.5564	10.56640900	7.24337400	93.10900100	#	H	TIP4P
7657	2315	2	-1.1128	6.80590900	8.94567200	93.69530000	#	O	TIP4P
7658	2315	3	0.5564	7.51623400	8.62720200	93.13830200	#	H	TIP4P
7659	2315	3	0.5564	6.02862800	8.90813100	93.13793400	#	H	TIP4P
7660	2316	2	-1.1128	8.22772900	16.99231700	91.55025300	#	O	TIP4P
7661	2316	3	0.5564	7.49534900	16.43628700	91.28439100	#	H	TIP4P
7662	2316	3	0.5564	8.30619000	17.63792200	90.84792200	#	H	TIP4P
7663	2317	2	-1.1128	6.39151100	26.40544300	88.04297100	#	O	TIP4P
7664	2317	3	0.5564	5.86102800	26.20964800	87.27064700	#	H	TIP4P
7665	2317	3	0.5564	6.77151200	25.56320900	88.29291400	#	H	TIP4P
7666	2318	2	-1.1128	12.57000400	24.35605600	84.91872200	#	O	TIP4P
7667	2318	3	0.5564	12.29069600	24.01562300	84.06882600	#	H	TIP4P
7668	2318	3	0.5564	13.11547000	23.66152600	85.28794700	#	H	TIP4P
7669	2319	2	-1.1128	27.49136400	9.93869900	80.66913000	#	O	TIP4P
7670	2319	3	0.5564	27.85543300	9.34712300	81.32770700	#	H	TIP4P
7671	2319	3	0.5564	28.15147600	10.62501500	80.57189900	#	H	TIP4P
7672	2320	2	-1.1128	26.04278700	12.05079500	79.53120900	#	O	TIP4P
7673	2320	3	0.5564	25.17510600	11.70873400	79.74651200	#	H	TIP4P
7674	2320	3	0.5564	25.87892900	12.71934000	78.86605500	#	H	TIP4P
7675	2321	2	-1.1128	4.75109500	27.15487400	80.86331000	#	O	TIP4P
7676	2321	3	0.5564	5.11324700	26.90380900	80.01357800	#	H	TIP4P
7677	2321	3	0.5564	4.48925700	26.32720900	81.26660000	#	H	TIP4P
7678	2322	2	-1.1128	13.70530000	19.85191500	92.94728000	#	O	TIP4P
7679	2322	3	0.5564	14.25859500	19.52291800	93.65569900	#	H	TIP4P
7680	2322	3	0.5564	14.28267900	20.41791600	92.43492400	#	H	TIP4P
7681	2323	2	-1.1128	8.63978600	20.97088200	91.16451700	#	O	TIP4P
7682	2323	3	0.5564	9.18753500	20.26681000	90.81740700	#	H	TIP4P
7683	2323	3	0.5564	9.22214700	21.72936600	91.20679600	#	H	TIP4P
7684	2324	2	-1.1128	24.23629600	22.73194800	88.89445500	#	O	TIP4P
7685	2324	3	0.5564	23.31046700	22.62716000	89.11375200	#	H	TIP4P
7686	2324	3	0.5564	24.57137100	23.34092400	89.55256200	#	H	TIP4P
7687	2325	2	-1.1128	22.53699600	6.16291900	87.91946500	#	O	TIP4P
7688	2325	3	0.5564	22.28468600	5.77234300	87.08279200	#	H	TIP4P
7689	2325	3	0.5564	22.72598000	5.41501500	88.48617100	#	H	TIP4P
7690	2326	2	-1.1128	19.79006000	19.99911900	90.27837500	#	O	TIP4P
7691	2326	3	0.5564	19.01367000	20.55897100	90.27445500	#	H	TIP4P
7692	2326	3	0.5564	20.29716100	20.28672400	89.51918900	#	H	TIP4P
7693	2327	2	-1.1128	17.95274800	21.14264100	84.17807100	#	O	TIP4P
7694	2327	3	0.5564	17.54749800	20.84449800	84.99239000	#	H	TIP4P
7695	2327	3	0.5564	17.52236600	20.62974500	83.49400900	#	H	TIP4P
7696	2328	2	-1.1128	18.11879100	22.28584500	87.32710600	#	O	TIP4P
7697	2328	3	0.5564	18.79764900	21.92465500	87.89712700	#	H	TIP4P
7698	2328	3	0.5564	18.58448900	22.89807600	86.75743000	#	H	TIP4P
7699	2329	2	-1.1128	30.20696000	20.64639800	88.38034300	#	O	TIP4P
7700	2329	3	0.5564	30.01107000	21.45131300	88.85989500	#	H	TIP4P
7701	2329	3	0.5564	31.14951200	20.68681800	88.21849700	#	H	TIP4P
7702	2330	2	-1.1128	15.04118500	13.58658800	90.80407300	#	O	TIP4P
7703	2330	3	0.5564	15.91513800	13.54722300	90.41563000	#	H	TIP4P
7704	2330	3	0.5564	14.52373900	12.96308700	90.29443900	#	H	TIP4P
7705	2331	2	-1.1128	3.00677100	11.74343700	83.91242000	#	O	TIP4P
7706	2331	3	0.5564	2.22070000	12.19598300	84.21823900	#	H	TIP4P
7707	2331	3	0.5564	3.58670400	11.72865500	84.67379500	#	H	TIP4P
7708	2332	2	-1.1128	22.53978300	20.27749000	84.22721300	#	O	TIP4P
7709	2332	3	0.5564	22.46918900	19.82590000	83.38619300	#	H	TIP4P
7710	2332	3	0.5564	22.31235100	21.18642300	84.03138600	#	H	TIP4P
7711	2333	2	-1.1128	7.35688100	32.59470600	86.40912000	#	O	TIP4P
7712	2333	3	0.5564	6.65192900	33.04095300	85.93993100	#	H	TIP4P
7713	2333	3	0.5564	7.85605100	33.30054000	86.82004500	#	H	TIP4P
7714	2334	2	-1.1128	31.07842200	9.59828300	84.80598400	#	O	TIP4P
7715	2334	3	0.5564	31.14516000	10.54846300	84.71145800	#	H	TIP4P
7716	2334	3	0.5564	31.14951500	9.26263300	83.91238700	#	H	TIP4P
7717	2335	2	-1.1128	8.92412500	14.73267400	83.43303600	#	O	TIP4P
7718	2335	3	0.5564	9.44562300	13.95627600	83.22937100	#	H	TIP4P
7719	2335	3	0.5564	8.84385300	15.19367400	82.59801100	#	H	TIP4P
7720	2336	2	-1.1128	26.64036100	12.93453100	85.13025300	#	O	TIP4P
7721	2336	3	0.5564	26.80198000	13.13543900	86.05207000	#	H	TIP4P
7722	2336	3	0.5564	27.50755900	12.95119000	84.72538100	#	H	TIP4P
7723	2337	2	-1.1128	25.47328600	23.96520500	83.12140800	#	O	TIP4P
7724	2337	3	0.5564	25.34920000	24.71152600	83.70778700	#	H	TIP4P
7725	2337	3	0.5564	24.73825600	24.01533800	82.51030400	#	H	TIP4P
7726	2338	2	-1.1128	1.49986400	1.95694100	86.87295700	#	O	TIP4P
7727	2338	3	0.5564	2.33425000	1.49972500	86.76814500	#	H	TIP4P
7728	2338	3	0.5564	1.72304100	2.88449700	86.79509000	#	H	TIP4P
7729	2339	2	-1.1128	12.21780700	32.61219900	88.47325600	#	O	TIP4P
7730	2339	3	0.5564	12.68292200	31.81731400	88.73413400	#	H	TIP4P
7731	2339	3	0.5564	12.60774300	33.30452400	89.00698700	#	H	TIP4P
7732	2340	2	-1.1128	23.49438700	20.27261400	87.70493800	#	O	TIP4P
7733	2340	3	0.5564	22.65698100	20.07305700	88.12345800	#	H	TIP4P
7734	2340	3	0.5564	23.40484200	19.93246800	86.81470600	#	H	TIP4P
7735	2341	2	-1.1128	23.86213500	2.99222100	86.03459800	#	O	TIP4P
7736	2341	3	0.5564	23.41352300	2.86723700	86.87087500	#	H	TIP4P
7737	2341	3	0.5564	23.16840100	3.24536200	85.42559600	#	H	TIP4P
7738	2342	2	-1.1128	26.85673200	24.61771100	91.54656000	#	O	TIP4P
7739	2342	3	0.5564	26.21952000	23.91556100	91.67762400	#	H	TIP4P
7740	2342	3	0.5564	26.32560900	25.40659200	91.43790400	#	H	TIP4P
7741	2343	2	-1.1128	25.99318600	7.38767300	80.06910400	#	O	TIP4P
7742	2343	3	0.5564	26.82172000	6.99582900	80.34518700	#	H	TIP4P
7743	2343	3	0.5564	25.56814800	7.65042000	80.88552100	#	H	TIP4P
7744	2344	2	-1.1128	16.76532700	3.31225800	79.57947800	#	O	TIP4P
7745	2344	3	0.5564	16.99502300	3.92401900	78.88003500	#	H	TIP4P
7746	2344	3	0.5564	17.46736500	2.66166400	79.56941700	#	H	TIP4P
7747	2345	2	-1.1128	4.42826000	1.92988800	81.85853700	#	O	TIP4P
7748	2345	3	0.5564	5.26492000	1.49997500	81.68132100	#	H	TIP4P
7749	2345	3	0.5564	3.80805900	1.49997400	81.26967800	#	H	TIP4P
7750	2346	2	-1.1128	19.64403500	32.81818400	87.23044400	#	O	TIP4P
7751	2346	3	0.5564	19.38601000	33.30052200	86.44494700	#	H	TIP4P
7752	2346	3	0.5564	19.24002500	33.30053700	87.95179200	#	H	TIP4P
7753	2347	2	-1.1128	15.39871500	4.64800300	93.20453500	#	O	TIP4P
7754	2347	3	0.5564	16.17935200	4.11482600	93.05433500	#	H	TIP4P
7755	2347	3	0.5564	15.59526800	5.14247900	94.00020600	#	H	TIP4P
7756	2348	2	-1.1128	1.71706500	29.67922200	87.52046100	#	O	TIP4P
7757	2348	3	0.5564	2.66779700	29.64968800	87.41337500	#	H	TIP4P
7758	2348	3	0.5564	1.49964600	30.61045700	87.47848400	#	H	TIP4P
7759	2349	2	-1.1128	14.56631700	23.62335600	94.00027200	#	O	TIP4P
7760	2349	3	0.5564	14.46238700	22.67181500	94.00021200	#	H	TIP4P
7761	2349	3	0.5564	15.51352300	23.76131400	94.00041200	#	H	TIP4P
7762	2350	2	-1.1128	14.13236200	4.47052700	88.38101600	#	O	TIP4P
7763	2350	3	0.5564	14.04449800	3.51738300	88.38638600	#	H	TIP4P
7764	2350	3	0.5564	13.23547700	4.79467600	88.46321000	#	H	TIP4P
7765	2351	2	-1.1128	6.09706400	9.42434100	80.65020600	#	O	TIP4P
7766	2351	3	0.5564	6.19398200	9.11736200	79.74876200	#	H	TIP4P
7767	2351	3	0.5564	6.75768900	8.93667900	81.14213300	#	H	TIP4P
7768	2352	2	-1.1128	29.07002600	12.39744300	89.66292500	#	O	TIP4P
7769	2352	3	0.5564	29.57125700	13.14076500	89.32755700	#	H	TIP4P
7770	2352	3	0.5564	28.17555800	12.55526500	89.36084800	#	H	TIP4P
7771	2353	2	-1.1128	7.58773300	9.06716100	90.42408000	#	O	TIP4P
7772	2353	3	0.5564	8.43059800	9.44396000	90.67673100	#	H	TIP4P
7773	2353	3	0.5564	7.80116500	8.18609100	90.11684300	#	H	TIP4P
7774	2354	2	-1.1128	19.16689200	24.91052900	78.45674100	#	O	TIP4P
7775	2354	3	0.5564	19.64875500	24.13532100	78.74499800	#	H	TIP4P
7776	2354	3	0.5564	18.40239200	24.56131900	77.99867400	#	H	TIP4P
7777	2355	2	-1.1128	10.83895300	23.67563600	81.71223500	#	O	TIP4P
7778	2355	3	0.5564	10.11558800	23.91530000	82.29149000	#	H	TIP4P
7779	2355	3	0.5564	10.97713300	22.74243600	81.87432900	#	H	TIP4P
7780	2356	2	-1.1128	1.50264600	6.15347100	87.53708000	#	O	TIP4P
7781	2356	3	0.5564	2.36797900	6.00627900	87.91887300	#	H	TIP4P
7782	2356	3	0.5564	1.49931600	5.62479300	86.73913300	#	H	TIP4P
7783	2357	2	-1.1128	4.20655200	28.97970400	94.00022500	#	O	TIP4P
7784	2357	3	0.5564	4.22534000	28.02292400	93.97896000	#	H	TIP4P
7785	2357	3	0.5564	5.12450000	29.23955400	93.92223800	#	H	TIP4P
7786	2358	2	-1.1128	22.63606800	7.93756700	85.42423800	#	O	TIP4P
7787	2358	3	0.5564	23.09447900	8.57965800	85.96628100	#	H	TIP4P
7788	2358	3	0.5564	21.93455900	8.43523600	85.00418900	#	H	TIP4P
7789	2359	2	-1.1128	13.66403100	29.82425000	77.99979100	#	O	TIP4P
7790	2359	3	0.5564	14.40442100	29.22013500	78.05547500	#	H	TIP4P
7791	2359	3	0.5564	12.91861900	29.32116200	78.32765400	#	H	TIP4P
7792	2360	2	-1.1128	2.47569400	24.60006300	82.93307300	#	O	TIP4P
7793	2360	3	0.5564	2.79362700	25.31278000	83.48731600	#	H	TIP4P
7794	2360	3	0.5564	2.68265500	23.80431600	83.42315900	#	H	TIP4P
7795	2361	2	-1.1128	31.14954600	31.93345600	84.48884800	#	O	TIP4P
7796	2361	3	0.5564	30.35221100	32.46212000	84.52053500	#	H	TIP4P
7797	2361	3	0.5564	31.10186500	31.47738300	83.64863600	#	H	TIP4P
7798	2362	2	-1.1128	10.36625800	31.51213600	86.76326800	#	O	TIP4P
7799	2362	3	0.5564	9.91682200	31.70603800	85.94068600	#	H	TIP4P
7800	2362	3	0.5564	9.66262900	31.30375000	87.37785200	#	H	TIP4P
7801	2363	2	-1.1128	30.21324400	14.93309000	81.73496400	#	O	TIP4P
7802	2363	3	0.5564	29.95780600	14.52883400	80.90577200	#	H	TIP4P
7803	2363	3	0.5564	31.14950400	15.10735200	81.63862000	#	H	TIP4P
7804	2364	2	-1.1128	31.14966000	24.70537100	90.61400900	#	O	TIP4P
7805	2364	3	0.5564	30.64245900	25.36786900	91.08313200	#	H	TIP4P
7806	2364	3	0.5564	30.63679100	23.90220100	90.70408200	#	H	TIP4P
7807	2365	2	-1.1128	11.59570100	23.48274900	92.73379600	#	O	TIP4P
7808	2365	3	0.5564	11.79449200	22.76955500	93.34048300	#	H	TIP4P
7809	2365	3	0.5564	11.83375200	24.27742600	93.21134200	#	H	TIP4P
7810	2366	2	-1.1128	18.27535200	18.52340600	78.18753700	#	O	TIP4P
7811	2366	3	0.5564	18.10261600	18.69524200	79.11320800	#	H	TIP4P
7812	2366	3	0.5564	19.08011400	19.00649100	77.99987200	#	H	TIP4P
7813	2367	2	-1.1128	28.24165600	31.85218100	88.23139500	#	O	TIP4P
7814	2367	3	0.5564	27.92787100	31.25104600	87.55581600	#	H	TIP4P
7815	2367	3	0.5564	27.53961300	31.86979700	88.88182300	#	H	TIP4P
7816	2368	2	-1.1128	17.56455200	31.14210300	86.57551700	#	O	TIP4P
7817	2368	3	0.5564	17.58005500	30.98640400	87.51984200	#	H	TIP4P
7818	2368	3	0.5564	17.03608000	30.42614200	86.22288700	#	H	TIP4P
7819	2369	2	-1.1128	12.23918500	16.54760700	88.75156600	#	O	TIP4P
7820	2369	3	0.5564	12.74702000	15.96615200	89.31746900	#	H	TIP4P
7821	2369	3	0.5564	12.10786100	16.04531800	87.94739500	#	H	TIP4P
7822	2370	2	-1.1128	23.22004300	31.46216900	83.41941500	#	O	TIP4P
7823	2370	3	0.5564	22.40271000	30.97909500	83.54122200	#	H	TIP4P
7824	2370	3	0.5564	23.81131800	31.10427600	84.08163700	#	H	TIP4P
7825	2371	2	-1.1128	13.14171000	21.17108800	86.78248300	#	O	TIP4P
7826	2371	3	0.5564	12.66820800	21.82856900	87.29213600	#	H	TIP4P
7827	2371	3	0.5564	12.84859300	20.33312800	87.14044300	#	H	TIP4P
7828	2372	2	-1.1128	3.77017800	16.36923200	83.59588200	#	O	TIP4P
7829	2372	3	0.5564	2.83348300	16.54509600	83.50696400	#	H	TIP4P
7830	2372	3	0.5564	3.93384000	15.63528000	83.00363100	#	H	TIP4P
7831	2373	2	-1.1128	31.14951700	8.96787100	93.11539600	#	O	TIP4P
7832	2373	3	0.5564	30.99852900	8.10956600	92.71948300	#	H	TIP4P
7833	2373	3	0.5564	30.27763700	9.27334200	93.36588500	#	H	TIP4P
7834	2374	2	-1.1128	19.01900400	32.35462600	90.83843800	#	O	TIP4P
7835	2374	3	0.5564	18.37979600	32.00308100	90.21871100	#	H	TIP4P
7836	2374	3	0.5564	19.00022600	33.30037100	90.69199700	#	H	TIP4P
7837	2375	2	-1.1128	2.89043200	21.06466800	78.49029000	#	O	TIP4P
7838	2375	3	0.5564	3.22642800	20.87654700	79.36661700	#	H	TIP4P
7839	2375	3	0.5564	1.98440700	20.75646900	78.50937800	#	H	TIP4P
7840	2376	2	-1.1128	18.22832200	4.21005500	85.84116000	#	O	TIP4P
7841	2376	3	0.5564	18.00439100	3.67695800	86.60398000	#	H	TIP4P
7842	2376	3	0.5564	18.20232700	3.59866400	85.10511900	#	H	TIP4P
7843	2377	2	-1.1128	7.15560600	11.01741900	88.36185200	#	O	TIP4P
7844	2377	3	0.5564	7.38020000	11.53935300	89.13216000	#	H	TIP4P
7845	2377	3	0.5564	7.96390700	10.55436200	88.14171800	#	H	TIP4P
7846	2378	2	-1.1128	21.75226600	32.85258900	88.99584400	#	O	TIP4P
7847	2378	3	0.5564	22.58149300	33.30054200	88.82865300	#	H	TIP4P
7848	2378	3	0.5564	21.62645000	32.92578300	89.94191200	#	H	TIP4P
7849	2379	2	-1.1128	9.50259300	16.82827000	85.56881700	#	O	TIP4P
7850	2379	3	0.5564	9.07526100	17.66643800	85.74515100	#	H	TIP4P
7851	2379	3	0.5564	9.89377500	16.57757900	86.40569300	#	H	TIP4P
7852	2380	2	-1.1128	2.55865100	11.23337400	87.99168600	#	O	TIP4P
7853	2380	3	0.5564	1.68621900	10.86311200	88.12585500	#	H	TIP4P
7854	2380	3	0.5564	3.13481800	10.47194000	87.92475400	#	H	TIP4P
7855	2381	2	-1.1128	30.33694700	8.35717100	80.67611300	#	O	TIP4P
7856	2381	3	0.5564	30.38104300	8.76757300	79.81248200	#	H	TIP4P
7857	2381	3	0.5564	31.14950100	7.85598900	80.74542500	#	H	TIP4P
7858	2382	2	-1.1128	19.80110200	11.13375100	93.02122800	#	O	TIP4P
7859	2382	3	0.5564	19.94787900	11.52407000	92.15963700	#	H	TIP4P
7860	2382	3	0.5564	20.65232700	11.18486300	93.45601100	#	H	TIP4P
7861	2383	2	-1.1128	19.92985500	26.32878800	84.11139400	#	O	TIP4P
7862	2383	3	0.5564	20.34569300	27.01790500	84.62949400	#	H	TIP4P
7863	2383	3	0.5564	19.30507300	26.79196500	83.55341000	#	H	TIP4P
7864	2384	2	-1.1128	15.36798200	13.09141900	93.91523100	#	O	TIP4P
7865	2384	3	0.5564	14.41334600	13.02255200	93.90260800	#	H	TIP4P
7866	2384	3	0.5564	15.67266500	12.18797900	94.00005800	#	H	TIP4P
7867	2385	2	-1.1128	7.95252300	3.86787000	79.97743800	#	O	TIP4P
7868	2385	3	0.5564	7.39548300	3.79702500	79.20224700	#	H	TIP4P
7869	2385	3	0.5564	7.39716600	3.57429200	80.69967200	#	H	TIP4P
7870	2386	2	-1.1128	22.16247500	29.50055200	93.74958800	#	O	TIP4P
7871	2386	3	0.5564	23.02838300	29.90645200	93.70858400	#	H	TIP4P
7872	2386	3	0.5564	21.55300900	30.21676300	93.57119700	#	H	TIP4P
7873	2387	2	-1.1128	17.03592900	11.09490900	90.95642700	#	O	TIP4P
7874	2387	3	0.5564	17.54795000	10.29050200	90.87279000	#	H	TIP4P
7875	2387	3	0.5564	16.12530300	10.80792300	90.88837400	#	H	TIP4P
7876	2388	2	-1.1128	17.92558100	17.34442000	83.41880200	#	O	TIP4P
7877	2388	3	0.5564	17.75859700	16.49910300	83.83568000	#	H	TIP4P
7878	2388	3	0.5564	17.21310200	17.90678400	83.72269900	#	H	TIP4P
7879	2389	2	-1.1128	17.14644300	31.76762300	93.41949000	#	O	TIP4P
7880	2389	3	0.5564	17.71768400	32.52669300	93.30232000	#	H	TIP4P
7881	2389	3	0.5564	17.01099400	31.43024600	92.53401800	#	H	TIP4P
7882	2390	2	-1.1128	15.38766800	23.02219200	83.24288400	#	O	TIP4P
7883	2390	3	0.5564	15.56664300	22.50119600	84.02567600	#	H	TIP4P
7884	2390	3	0.5564	15.77407200	22.51897300	82.52615900	#	H	TIP4P
7885	2391	2	-1.1128	29.54289000	18.26926900	81.96450000	#	O	TIP4P
7886	2391	3	0.5564	29.38333700	17.45690300	82.44495400	#	H	TIP4P
7887	2391	3	0.5564	30.11388700	18.01181200	81.24068400	#	H	TIP4P
7888	2392	2	-1.1128	27.57177800	10.33417900	83.87873300	#	O	TIP4P
7889	2392	3	0.5564	28.50990400	10.51835500	83.92597000	#	H	TIP4P
7890	2392	3	0.5564	27.50226700	9.39585900	84.05467500	#	H	TIP4P
7891	2393	2	-1.1128	27.93700600	14.90491200	91.31949200	#	O	TIP4P
7892	2393	3	0.5564	27.14638800	14.40505500	91.11627500	#	H	TIP4P
7893	2393	3	0.5564	27.66737700	15.82047500	91.24685500	#	H	TIP4P
7894	2394	2	-1.1128	17.01187100	2.85936000	82.44366900	#	O	TIP4P
7895	2394	3	0.5564	17.90782500	3.15230700	82.27729700	#	H	TIP4P
7896	2394	3	0.5564	17.08200100	1.90843800	82.52769500	#	H	TIP4P
7897	2395	2	-1.1128	24.52058900	21.19451500	91.37976400	#	O	TIP4P
7898	2395	3	0.5564	25.33149700	20.79022400	91.68832400	#	H	TIP4P
7899	2395	3	0.5564	24.17720800	20.57938800	90.73173700	#	H	TIP4P
7900	2396	2	-1.1128	30.53020900	27.97083900	91.96315300	#	O	TIP4P
7901	2396	3	0.5564	31.08144900	28.37001200	91.29007900	#	H	TIP4P
7902	2396	3	0.5564	31.14950100	27.60753400	92.59617700	#	H	TIP4P
7903	2397	2	-1.1128	5.32012400	1.50051400	85.04238900	#	O	TIP4P
7904	2397	3	0.5564	5.44370200	1.74402000	85.95981200	#	H	TIP4P
7905	2397	3	0.5564	4.37076100	1.49946700	84.92015400	#	H	TIP4P
7906	2398	2	-1.1128	12.06867200	6.65458700	90.47424600	#	O	TIP4P
7907	2398	3	0.5564	12.14200800	7.60858700	90.44708900	#	H	TIP4P
7908	2398	3	0.5564	12.94590800	6.35308400	90.71043400	#	H	TIP4P
7909	2399	2	-1.1128	22.29659100	24.73458400	91.98926000	#	O	TIP4P
7910	2399	3	0.5564	23.03791800	24.67264100	92.59161300	#	H	TIP4P
7911	2399	3	0.5564	22.67228500	24.55604800	91.12716300	#	H	TIP4P
7912	2400	2	-1.1128	26.73654600	4.27996700	84.09637700	#	O	TIP4P
7913	2400	3	0.5564	27.50488600	4.46499900	84.63642300	#	H	TIP4P
7914	2400	3	0.5564	26.34854500	3.49880600	84.49067900	#	H	TIP4P
7915	2401	2	-1.1128	2.77720100	28.76241200	81.90369100	#	O	TIP4P
7916	2401	3	0.5564	2.35729800	27.90654400	81.98973500	#	H	TIP4P
7917	2401	3	0.5564	2.05018400	29.37832200	81.81241000	#	H	TIP4P
7918	2402	2	-1.1128	11.55843700	4.77094000	93.79122800	#	O	TIP4P
7919	2402	3	0.5564	11.69058100	4.65443200	92.85038000	#	H	TIP4P
7920	2402	3	0.5564	10.66299900	4.47058200	93.94681500	#	H	TIP4P
7921	2403	2	-1.1128	30.06886700	27.09113600	85.69715600	#	O	TIP4P
7922	2403	3	0.5564	30.83978500	27.59222000	85.96330000	#	H	TIP4P
7923	2403	3	0.5564	29.52561400	27.05045900	86.48420900	#	H	TIP4P
7924	2404	2	-1.1128	20.00198600	10.34598400	83.05986200	#	O	TIP4P
7925	2404	3	0.5564	19.54812600	11.03334300	82.57223400	#	H	TIP4P
7926	2404	3	0.5564	20.77952800	10.15344400	82.53585000	#	H	TIP4P
7927	2405	2	-1.1128	28.27961700	15.70982800	78.62169100	#	O	TIP4P
7928	2405	3	0.5564	27.98824200	16.56961600	78.92516500	#	H	TIP4P
7929	2405	3	0.5564	27.55305000	15.12270600	78.83054500	#	H	TIP4P
7930	2406	2	-1.1128	10.93950800	7.64008000	86.02443400	#	O	TIP4P
7931	2406	3	0.5564	10.51292500	6.79166000	86.14460700	#	H	TIP4P
7932	2406	3	0.5564	11.14177800	7.67671900	85.08956700	#	H	TIP4P
7933	2407	2	-1.1128	29.22690900	17.43895300	87.01903800	#	O	TIP4P
7934	2407	3	0.5564	29.64157000	18.06788300	87.60957600	#	H	TIP4P
7935	2407	3	0.5564	29.94650400	16.88731700	86.71226100	#	H	TIP4P
7936	2408	2	-1.1128	4.23221700	3.48574300	79.41514500	#	O	TIP4P
7937	2408	3	0.5564	4.77282600	4.01722800	79.99952300	#	H	TIP4P
7938	2408	3	0.5564	4.82884700	2.81755600	79.07781600	#	H	TIP4P
7939	2409	2	-1.1128	9.38243500	29.84796400	92.95194300	#	O	TIP4P
7940	2409	3	0.5564	10.15041500	29.63754300	93.48313100	#	H	TIP4P
7941	2409	3	0.5564	9.40692800	29.21576600	92.23364100	#	H	TIP4P
7942	2410	2	-1.1128	22.62783900	26.57740100	87.35623700	#	O	TIP4P
7943	2410	3	0.5564	22.44760400	25.77646100	87.84841800	#	H	TIP4P
7944	2410	3	0.5564	22.42449600	27.28550500	87.96736000	#	H	TIP4P
7945	2411	2	-1.1128	10.35111100	31.53165300	90.17920500	#	O	TIP4P
7946	2411	3	0.5564	9.98330200	32.41017900	90.27481400	#	H	TIP4P
7947	2411	3	0.5564	9.58784500	30.95777500	90.11347000	#	H	TIP4P
7948	2412	2	-1.1128	27.82887100	22.81211000	87.88589200	#	O	TIP4P
7949	2412	3	0.5564	27.56446100	22.87828600	86.96831900	#	H	TIP4P
7950	2412	3	0.5564	27.00712000	22.84677600	88.37554000	#	H	TIP4P
7951	2413	2	-1.1128	30.81186300	5.51134700	88.98837000	#	O	TIP4P
7952	2413	3	0.5564	30.79738600	5.16631300	88.09563700	#	H	TIP4P
7953	2413	3	0.5564	31.14950100	4.78983100	89.51907300	#	H	TIP4P
7954	2414	2	-1.1128	20.83669200	14.09182900	84.19071800	#	O	TIP4P
7955	2414	3	0.5564	20.41719600	13.78835200	83.38563600	#	H	TIP4P
7956	2414	3	0.5564	20.27031000	13.77051800	84.89228900	#	H	TIP4P
7957	2415	2	-1.1128	23.98556000	28.27702700	78.37199100	#	O	TIP4P
7958	2415	3	0.5564	24.75171200	27.82955400	78.73117300	#	H	TIP4P
7959	2415	3	0.5564	23.45060700	27.57584300	77.99997500	#	H	TIP4P
7960	2416	2	-1.1128	21.02979100	21.61656700	78.48706600	#	O	TIP4P
7961	2416	3	0.5564	21.16198800	20.80323100	77.99999300	#	H	TIP4P
7962	2416	3	0.5564	21.52891700	22.27199200	77.99970300	#	H	TIP4P
7963	2417	2	-1.1128	24.92014500	29.46442500	81.72413800	#	O	TIP4P
7964	2417	3	0.5564	25.04612800	29.13386700	82.61357100	#	H	TIP4P
7965	2417	3	0.5564	25.80675400	29.56507000	81.37768800	#	H	TIP4P
7966	2418	2	-1.1128	10.66583100	29.09687300	85.48296000	#	O	TIP4P
7967	2418	3	0.5564	10.36965800	28.63926000	86.26979200	#	H	TIP4P
7968	2418	3	0.5564	11.60533200	28.91854000	85.44093200	#	H	TIP4P
7969	2419	2	-1.1128	18.22883400	8.30122900	88.52934500	#	O	TIP4P
7970	2419	3	0.5564	18.55472700	9.20123700	88.52616000	#	H	TIP4P
7971	2419	3	0.5564	18.24675000	8.04276500	89.45081500	#	H	TIP4P
7972	2420	2	-1.1128	18.91992800	15.82619300	81.35271600	#	O	TIP4P
7973	2420	3	0.5564	19.74636700	15.97898000	81.81085100	#	H	TIP4P
7974	2420	3	0.5564	18.67376800	14.93300200	81.59323100	#	H	TIP4P
7975	2421	2	-1.1128	25.43043400	30.25749700	88.13730200	#	O	TIP4P
7976	2421	3	0.5564	25.77388400	29.76155400	88.88048000	#	H	TIP4P
7977	2421	3	0.5564	24.60775400	29.82064500	87.91687200	#	H	TIP4P
7978	2422	2	-1.1128	24.03451800	13.43522000	85.85229100	#	O	TIP4P
7979	2422	3	0.5564	23.21600900	13.82351000	85.54324800	#	H	TIP4P
7980	2422	3	0.5564	24.23363800	13.90700600	86.66099400	#	H	TIP4P
7981	2423	2	-1.1128	3.43391200	29.85908400	90.16723600	#	O	TIP4P
7982	2423	3	0.5564	2.47678900	29.85144900	90.15776600	#	H	TIP4P
7983	2423	3	0.5564	3.67191400	29.24681000	90.86344500	#	H	TIP4P
7984	2424	2	-1.1128	3.56396300	18.15742400	91.32348700	#	O	TIP4P
7985	2424	3	0.5564	2.69365000	18.17367600	90.92533600	#	H	TIP4P
7986	2424	3	0.5564	3.39668100	18.15368100	92.26594800	#	H	TIP4P
7987	2425	2	-1.1128	23.55720900	18.58354800	80.68716200	#	O	TIP4P
7988	2425	3	0.5564	24.49123300	18.52237000	80.48694200	#	H	TIP4P
7989	2425	3	0.5564	23.40034600	19.51884800	80.81692700	#	H	TIP4P
7990	2426	2	-1.1128	16.95599100	16.38953200	87.63604300	#	O	TIP4P
7991	2426	3	0.5564	17.81330900	16.54048900	87.23798500	#	H	TIP4P
7992	2426	3	0.5564	16.32896500	16.63359500	86.95523200	#	H	TIP4P
7993	2427	2	-1.1128	10.07743300	19.44314400	83.37711400	#	O	TIP4P
7994	2427	3	0.5564	9.91702900	18.95844300	82.56744300	#	H	TIP4P
7995	2427	3	0.5564	9.20866500	19.56485900	83.76007700	#	H	TIP4P
7996	2428	2	-1.1128	3.56068900	20.83190600	90.54655500	#	O	TIP4P
7997	2428	3	0.5564	3.01985600	20.87330200	91.33523600	#	H	TIP4P
7998	2428	3	0.5564	4.03269900	21.66455900	90.53526400	#	H	TIP4P
7999	2429	2	-1.1128	4.65893500	4.23043000	85.06590800	#	O	TIP4P
8000	2429	3	0.5564	3.93245900	4.10674300	85.67678100	#	H	TIP4P
8001	2429	3	0.5564	4.23872500	4.45333900	84.23526500	#	H	TIP4P
8002	2430	2	-1.1128	6.28234700	23.22317800	92.49619600	#	O	TIP4P
8003	2430	3	0.5564	6.83559400	22.45171500	92.61864800	#	H	TIP4P
8004	2430	3	0.5564	5.38813500	22.89422100	92.58786600	#	H	TIP4P
8005	2431	2	-1.1128	14.72681500	13.58451500	84.10636100	#	O	TIP4P
8006	2431	3	0.5564	13.79307200	13.46256500	83.93465200	#	H	TIP4P
8007	2431	3	0.5564	15.13862500	12.78854700	83.77009000	#	H	TIP4P
8008	2432	2	-1.1128	10.63098800	9.86861300	92.27058900	#	O	TIP4P
8009	2432	3	0.5564	9.93733700	9.91436300	92.92860700	#	H	TIP4P
8010	2432	3	0.5564	10.79697100	10.78088900	92.03303100	#	H	TIP4P
8011	2433	2	-1.1128	27.57789700	22.32942000	83.79762100	#	O	TIP4P
8012	2433	3	0.5564	27.78901000	21.64451700	84.43210600	#	H	TIP4P
8013	2433	3	0.5564	28.42384800	22.58457500	83.42952600	#	H	TIP4P
8014	2434	2	-1.1128	2.95126100	7.62689200	82.19520600	#	O	TIP4P
8015	2434	3	0.5564	3.41137400	6.80061000	82.34280600	#	H	TIP4P
8016	2434	3	0.5564	2.08679700	7.36669400	81.87703700	#	H	TIP4P
8017	2435	2	-1.1128	25.03396700	21.43506300	84.33705800	#	O	TIP4P
8018	2435	3	0.5564	25.05123500	21.08199400	83.44752100	#	H	TIP4P
8019	2435	3	0.5564	25.22751200	20.68350800	84.89735900	#	H	TIP4P
8020	2436	2	-1.1128	26.08970800	32.72947100	86.14237100	#	O	TIP4P
8021	2436	3	0.5564	25.33247400	33.30042300	86.01259200	#	H	TIP4P
8022	2436	3	0.5564	25.77296700	31.85532700	85.91482300	#	H	TIP4P
8023	2437	2	-1.1128	6.75339300	4.85839900	87.49748300	#	O	TIP4P
8024	2437	3	0.5564	6.50630300	4.02641600	87.09377100	#	H	TIP4P
8025	2437	3	0.5564	5.92012200	5.28188700	87.70375400	#	H	TIP4P
8026	2438	2	-1.1128	19.28143500	31.37341300	80.05526700	#	O	TIP4P
8027	2438	3	0.5564	18.88218300	30.51292900	79.92721100	#	H	TIP4P
8028	2438	3	0.5564	18.53953800	31.97415600	80.12546900	#	H	TIP4P
8029	2439	2	-1.1128	17.09401800	31.06880700	83.28719600	#	O	TIP4P
8030	2439	3	0.5564	17.52345700	30.24574100	83.52038300	#	H	TIP4P
8031	2439	3	0.5564	17.71623700	31.50835600	82.70765100	#	H	TIP4P
8032	2440	2	-1.1128	7.86866800	10.96606200	78.59109700	#	O	TIP4P
8033	2440	3	0.5564	8.49236500	10.32908900	78.24253100	#	H	TIP4P
8034	2440	3	0.5564	7.93560900	11.71581200	77.99980600	#	H	TIP4P
8035	2441	2	-1.1128	15.93814500	28.44364900	87.81408700	#	O	TIP4P
8036	2441	3	0.5564	16.79408300	28.45213800	88.24249300	#	H	TIP4P
8037	2441	3	0.5564	15.36444900	28.91946900	88.41466900	#	H	TIP4P
8038	2442	2	-1.1128	7.63241400	26.98569700	94.00044600	#	O	TIP4P
8039	2442	3	0.5564	6.76549800	26.59489800	93.89106500	#	H	TIP4P
8040	2442	3	0.5564	7.51867600	27.89921600	93.73819000	#	H	TIP4P
8041	2443	2	-1.1128	21.87825300	28.58508000	80.11767700	#	O	TIP4P
8042	2443	3	0.5564	21.50943700	28.99437200	79.33493400	#	H	TIP4P
8043	2443	3	0.5564	22.48504700	29.23796800	80.46663100	#	H	TIP4P
8044	2444	2	-1.1128	8.79716100	25.33208100	91.25047500	#	O	TIP4P
8045	2444	3	0.5564	8.15419200	25.73083000	90.66411200	#	H	TIP4P
8046	2444	3	0.5564	8.56515200	24.40354100	91.26520300	#	H	TIP4P
8047	2445	2	-1.1128	27.74273300	25.45758000	84.83777100	#	O	TIP4P
8048	2445	3	0.5564	27.48026600	25.36374400	85.75348800	#	H	TIP4P
8049	2445	3	0.5564	28.56913200	24.97870800	84.77470700	#	H	TIP4P
8050	2446	2	-1.1128	21.80193600	11.03623100	78.28809900	#	O	TIP4P
8051	2446	3	0.5564	22.73159200	11.26337900	78.26874900	#	H	TIP4P
8052	2446	3	0.5564	21.35444900	11.83182600	77.99997500	#	H	TIP4P
8053	2447	2	-1.1128	4.49339800	12.69162500	89.76526700	#	O	TIP4P
8054	2447	3	0.5564	4.83279400	12.54473200	88.88239400	#	H	TIP4P
8055	2447	3	0.5564	5.27104300	12.86637100	90.29532700	#	H	TIP4P
8056	2448	2	-1.1128	16.18995400	33.30128500	84.61428700	#	O	TIP4P
8057	2448	3	0.5564	17.09625900	33.28897600	84.92200400	#	H	TIP4P
8058	2448	3	0.5564	15.75447700	32.61732500	85.12300200	#	H	TIP4P
8059	2449	2	-1.1128	26.91320600	20.25326700	87.46594000	#	O	TIP4P
8060	2449	3	0.5564	26.20871300	20.03170900	88.07490100	#	H	TIP4P
8061	2449	3	0.5564	27.27537400	19.40802500	87.20017500	#	H	TIP4P
8062	2450	2	-1.1128	25.60254000	10.17367600	85.88458200	#	O	TIP4P
8063	2450	3	0.5564	25.58590900	9.54956300	86.61014300	#	H	TIP4P
8064	2450	3	0.5564	25.10020100	10.92411000	86.20197200	#	H	TIP4P
8065	2451	2	-1.1128	19.41746700	11.37681600	85.94413700	#	O	TIP4P
8066	2451	3	0.5564	19.73886300	10.48332700	85.82325000	#	H	TIP4P
8067	2451	3	0.5564	18.49585400	11.27051200	86.17984800	#	H	TIP4P
8068	2452	2	-1.1128	17.75122500	19.28974400	87.25153400	#	O	TIP4P
8069	2452	3	0.5564	16.98672700	19.78618900	87.54362600	#	H	TIP4P
8070	2452	3	0.5564	18.25385700	19.13095200	88.05051800	#	H	TIP4P
8071	2453	2	-1.1128	6.74162800	10.55668700	85.67828700	#	O	TIP4P
8072	2453	3	0.5564	7.20386000	10.98794300	84.95954400	#	H	TIP4P
8073	2453	3	0.5564	5.99402000	11.12647800	85.85898300	#	H	TIP4P
8074	2454	2	-1.1128	14.53769100	5.17702700	79.49462900	#	O	TIP4P
8075	2454	3	0.5564	13.76158900	4.66929500	79.73149600	#	H	TIP4P
8076	2454	3	0.5564	15.00868900	5.29438800	80.31962500	#	H	TIP4P
8077	2455	2	-1.1128	3.75738400	19.86480700	84.13372400	#	O	TIP4P
8078	2455	3	0.5564	3.80293100	19.11837400	83.53623400	#	H	TIP4P
8079	2455	3	0.5564	3.81801900	20.63193600	83.56445500	#	H	TIP4P
8080	2456	2	-1.1128	15.66138100	1.68939000	85.46479800	#	O	TIP4P
8081	2456	3	0.5564	15.49668800	2.58546100	85.75833500	#	H	TIP4P
8082	2456	3	0.5564	16.55146400	1.49949100	85.76131200	#	H	TIP4P
8083	2457	2	-1.1128	4.33139400	4.97364400	89.93801700	#	O	TIP4P
8084	2457	3	0.5564	3.42402300	4.72135000	90.10906700	#	H	TIP4P
8085	2457	3	0.5564	4.30606100	5.92796200	89.86825700	#	H	TIP4P
8086	2458	2	-1.1128	6.42318200	22.77528600	88.35010700	#	O	TIP4P
8087	2458	3	0.5564	6.68474400	22.94839800	87.44575700	#	H	TIP4P
8088	2458	3	0.5564	5.48477700	22.96312300	88.36866300	#	H	TIP4P
8089	2459	2	-1.1128	23.24961600	14.50177800	78.75917700	#	O	TIP4P
8090	2459	3	0.5564	23.36014800	13.72867500	79.31264500	#	H	TIP4P
8091	2459	3	0.5564	22.41961800	14.35539100	78.30540900	#	H	TIP4P
8092	2460	2	-1.1128	3.35311300	25.10363100	86.23442900	#	O	TIP4P
8093	2460	3	0.5564	2.44029600	24.81768700	86.19932500	#	H	TIP4P
8094	2460	3	0.5564	3.78089000	24.47061000	86.81107600	#	H	TIP4P
8095	2461	2	-1.1128	11.75581500	18.43583700	85.30865600	#	O	TIP4P
8096	2461	3	0.5564	12.40835300	18.93251400	84.81495700	#	H	TIP4P
8097	2461	3	0.5564	12.26696300	17.92865900	85.93931400	#	H	TIP4P
8098	2462	2	-1.1128	11.74881600	15.35363100	83.78177500	#	O	TIP4P
8099	2462	3	0.5564	11.84081100	15.49919500	84.72335900	#	H	TIP4P
8100	2462	3	0.5564	11.29158800	16.13148900	83.46222700	#	H	TIP4P
8101	2463	2	-1.1128	22.62610300	28.41588100	85.26814700	#	O	TIP4P
8102	2463	3	0.5564	22.99679800	29.11901800	85.80145400	#	H	TIP4P
8103	2463	3	0.5564	23.09569300	28.47277400	84.43599300	#	H	TIP4P
8104	2464	2	-1.1128	11.61870800	1.95698500	88.66547700	#	O	TIP4P
8105	2464	3	0.5564	10.78174400	1.49958900	88.74617400	#	H	TIP4P
8106	2464	3	0.5564	11.40921500	2.75772900	88.18469500	#	H	TIP4P
8107	2465	2	-1.1128	2.03235800	23.64276100	90.65983000	#	O	TIP4P
8108	2465	3	0.5564	1.49984800	23.16469400	91.29553200	#	H	TIP4P
8109	2465	3	0.5564	1.49996500	24.40241300	90.42378300	#	H	TIP4P
8110	2466	2	-1.1128	1.49960900	27.14559300	85.07752900	#	O	TIP4P
8111	2466	3	0.5564	1.50651100	27.39669300	86.00118100	#	H	TIP4P
8112	2466	3	0.5564	1.50338500	27.97678500	84.60283300	#	H	TIP4P
8113	2467	2	-1.1128	13.17865600	26.64993100	78.92713900	#	O	TIP4P
8114	2467	3	0.5564	13.41616500	26.63584300	77.99998100	#	H	TIP4P
8115	2467	3	0.5564	13.99792700	26.84566300	79.38179900	#	H	TIP4P
8116	2468	2	-1.1128	24.85738200	7.63006100	89.59320700	#	O	TIP4P
8117	2468	3	0.5564	24.08842100	7.25751000	90.02464200	#	H	TIP4P
8118	2468	3	0.5564	24.55358700	7.85544800	88.71392300	#	H	TIP4P
8119	2469	2	-1.1128	24.32147600	22.57065900	79.99339900	#	O	TIP4P
8120	2469	3	0.5564	23.91252800	21.99892200	79.34369900	#	H	TIP4P
8121	2469	3	0.5564	24.64232300	21.97425400	80.66985300	#	H	TIP4P
8122	2470	2	-1.1128	30.25141700	21.80972900	85.86624900	#	O	TIP4P
8123	2470	3	0.5564	29.99127300	22.71298300	85.68544700	#	H	TIP4P
8124	2470	3	0.5564	31.14956200	21.74895100	85.54087000	#	H	TIP4P
8125	2471	2	-1.1128	26.75122500	15.09433400	93.79346300	#	O	TIP4P
8126	2471	3	0.5564	25.80563900	14.96789400	93.87165100	#	H	TIP4P
8127	2471	3	0.5564	26.88048700	16.03210800	93.93524400	#	H	TIP4P
8128	2472	2	-1.1128	11.45179600	22.55377700	78.22867600	#	O	TIP4P
8129	2472	3	0.5564	11.41101500	21.62552600	77.99863300	#	H	TIP4P
8130	2472	3	0.5564	11.51586500	22.56175700	79.18369600	#	H	TIP4P
8131	2473	2	-1.1128	17.46906500	23.28709700	91.74112400	#	O	TIP4P
8132	2473	3	0.5564	18.30068500	22.96969800	91.38913200	#	H	TIP4P
8133	2473	3	0.5564	17.04229400	22.50489400	92.09077600	#	H	TIP4P
8134	2474	2	-1.1128	9.70594100	15.01949400	88.81703100	#	O	TIP4P
8135	2474	3	0.5564	10.25564400	14.83138500	89.57773700	#	H	TIP4P
8136	2474	3	0.5564	9.01590500	15.59041200	89.15486800	#	H	TIP4P
8137	2475	2	-1.1128	14.86522400	33.30044400	82.20440400	#	O	TIP4P
8138	2475	3	0.5564	15.69955400	33.22412500	81.74147700	#	H	TIP4P
8139	2475	3	0.5564	14.65418500	32.40476300	82.46793700	#	H	TIP4P
8140	2476	2	-1.1128	16.33086700	9.79618700	87.01751100	#	O	TIP4P
8141	2476	3	0.5564	15.92126100	9.64345200	87.86905600	#	H	TIP4P
8142	2476	3	0.5564	16.30546000	8.94384800	86.58265000	#	H	TIP4P
8143	2477	2	-1.1128	17.41538600	27.87547500	78.69661100	#	O	TIP4P
8144	2477	3	0.5564	18.04007400	27.67357000	78.00002600	#	H	TIP4P
8145	2477	3	0.5564	16.81058900	27.13355500	78.69905700	#	H	TIP4P
8146	2478	2	-1.1128	1.77226900	19.33887800	81.69486800	#	O	TIP4P
8147	2478	3	0.5564	1.49982600	18.54136100	82.14871100	#	H	TIP4P
8148	2478	3	0.5564	1.60051700	19.15952600	80.77044100	#	H	TIP4P
8149	2479	2	-1.1128	28.17509300	11.50136500	93.56647200	#	O	TIP4P
8150	2479	3	0.5564	27.74119100	12.26839500	93.19280600	#	H	TIP4P
8151	2479	3	0.5564	29.09943600	11.74611500	93.61028500	#	H	TIP4P
8152	2480	2	-1.1128	3.77064000	29.25054200	79.34718700	#	O	TIP4P
8153	2480	3	0.5564	4.64646800	29.63667300	79.35498100	#	H	TIP4P
8154	2480	3	0.5564	3.17719700	30.00155000	79.35383900	#	H	TIP4P
8155	2481	2	-1.1128	25.62437400	31.43636100	79.26972200	#	O	TIP4P
8156	2481	3	0.5564	25.37225600	31.93285000	80.04828900	#	H	TIP4P
8157	2481	3	0.5564	24.89205400	30.83878100	79.11860400	#	H	TIP4P
8158	2482	2	-1.1128	11.71001900	27.49470400	91.42644500	#	O	TIP4P
8159	2482	3	0.5564	12.25433500	26.71937200	91.56360500	#	H	TIP4P
8160	2482	3	0.5564	10.86113100	27.14673200	91.15343200	#	H	TIP4P
8161	2483	2	-1.1128	2.32403400	23.44425700	93.95689000	#	O	TIP4P
8162	2483	3	0.5564	1.76220000	24.20814400	93.82631400	#	H	TIP4P
8163	2483	3	0.5564	3.21045700	23.80288800	94.00012600	#	H	TIP4P
8164	2484	2	-1.1128	20.00043400	5.77249000	88.91637900	#	O	TIP4P
8165	2484	3	0.5564	19.95103200	5.17324000	89.66115400	#	H	TIP4P
8166	2484	3	0.5564	19.27118600	5.51496700	88.35236600	#	H	TIP4P
8167	2485	2	-1.1128	25.45957500	15.47532900	80.92971000	#	O	TIP4P
8168	2485	3	0.5564	24.56455800	15.79217300	80.80811200	#	H	TIP4P
8169	2485	3	0.5564	26.00744300	16.25039900	80.80586200	#	H	TIP4P
8170	2486	2	-1.1128	31.14964900	21.19172100	82.47946700	#	O	TIP4P
8171	2486	3	0.5564	31.08103700	20.54141500	81.78044800	#	H	TIP4P
8172	2486	3	0.5564	30.76024500	21.98392400	82.10931900	#	H	TIP4P
8173	2487	2	-1.1128	10.17593100	8.60819500	81.54896400	#	O	TIP4P
8174	2487	3	0.5564	9.48481600	8.13361200	81.08705100	#	H	TIP4P
8175	2487	3	0.5564	10.76787200	7.92463000	81.86293000	#	H	TIP4P
8176	2488	2	-1.1128	14.46004800	26.95135700	85.70939100	#	O	TIP4P
8177	2488	3	0.5564	13.50919900	26.89872600	85.61270600	#	H	TIP4P
8178	2488	3	0.5564	14.72522300	26.06621700	85.95927200	#	H	TIP4P
8179	2489	2	-1.1128	7.79480300	33.13551200	91.77376500	#	O	TIP4P
8180	2489	3	0.5564	8.13907300	32.42479900	92.31468800	#	H	TIP4P
8181	2489	3	0.5564	6.85534300	33.14314200	91.95703600	#	H	TIP4P
8182	2490	2	-1.1128	11.12116400	26.39241800	82.93576400	#	O	TIP4P
8183	2490	3	0.5564	11.53002300	26.78559300	83.70678900	#	H	TIP4P
8184	2490	3	0.5564	11.85596000	26.14370200	82.37501000	#	H	TIP4P
8185	2491	2	-1.1128	8.11159700	2.03749300	89.12488600	#	O	TIP4P
8186	2491	3	0.5564	8.32905100	2.92244700	88.83196700	#	H	TIP4P
8187	2491	3	0.5564	7.18906300	1.92823800	88.89417900	#	H	TIP4P
8188	2492	2	-1.1128	26.46321500	26.84078500	81.34923700	#	O	TIP4P
8189	2492	3	0.5564	26.65968400	25.94648400	81.62826900	#	H	TIP4P
8190	2492	3	0.5564	25.52153000	26.83722900	81.17763300	#	H	TIP4P
8191	2493	2	-1.1128	10.61663600	18.75282400	88.49318600	#	O	TIP4P
8192	2493	3	0.5564	10.42285100	19.13709900	87.63819300	#	H	TIP4P
8193	2493	3	0.5564	9.88764000	18.15489800	88.65835300	#	H	TIP4P
8194	2494	2	-1.1128	17.05656000	18.87387900	91.22156400	#	O	TIP4P
8195	2494	3	0.5564	16.28163900	18.62264000	91.72416600	#	H	TIP4P
8196	2494	3	0.5564	16.72789000	19.03129100	90.33644900	#	H	TIP4P
8197	2495	2	-1.1128	11.41650200	23.70314300	89.99851700	#	O	TIP4P
8198	2495	3	0.5564	11.22654900	24.63674200	90.09094800	#	H	TIP4P
8199	2495	3	0.5564	11.99780900	23.65047300	89.23987500	#	H	TIP4P
8200	2496	2	-1.1128	14.33136500	2.24508200	82.43769400	#	O	TIP4P
8201	2496	3	0.5564	13.76157100	1.49999400	82.62851300	#	H	TIP4P
8202	2496	3	0.5564	14.36371700	2.73854000	83.25725700	#	H	TIP4P
8203	2497	2	-1.1128	30.98895700	9.02856000	89.80997700	#	O	TIP4P
8204	2497	3	0.5564	30.37998800	8.32968000	90.04863000	#	H	TIP4P
8205	2497	3	0.5564	30.85873400	9.69954900	90.48008600	#	H	TIP4P
8206	2498	2	-1.1128	29.89703900	2.75987600	86.18319000	#	O	TIP4P
8207	2498	3	0.5564	30.75642600	2.86446400	86.59153800	#	H	TIP4P
8208	2498	3	0.5564	29.31159600	3.29947600	86.71452800	#	H	TIP4P
8209	2499	2	-1.1128	30.30831800	24.69516700	82.02318800	#	O	TIP4P
8210	2499	3	0.5564	30.58054300	24.60702400	82.93661900	#	H	TIP4P
8211	2499	3	0.5564	31.12358600	24.64624800	81.52401100	#	H	TIP4P
8212	2500	2	-1.1128	14.26701400	16.71278500	84.23581100	#	O	TIP4P
8213	2500	3	0.5564	14.50546900	17.32486100	83.53958200	#	H	TIP4P
8214	2500	3	0.5564	15.09904000	16.33022300	84.51439700	#	H	TIP4P
8215	2501	2	-1.1128	2.48498200	26.46458300	92.43023900	#	O	TIP4P
8216	2501	3	0.5564	3.31850900	26.00073600	92.35079900	#	H	TIP4P
8217	2501	3	0.5564	2.30154900	26.78165200	91.54590300	#	H	TIP4P
8218	2502	2	-1.1128	17.35042800	27.92669800	85.11999300	#	O	TIP4P
8219	2502	3	0.5564	16.73956600	27.76158100	84.40178900	#	H	TIP4P
8220	2502	3	0.5564	17.22366000	27.18943700	85.71715900	#	H	TIP4P
8221	2503	2	-1.1128	14.63280000	33.12252300	90.85860400	#	O	TIP4P
8222	2503	3	0.5564	15.23407400	33.30060300	91.58178500	#	H	TIP4P
8223	2503	3	0.5564	14.89576300	32.26113000	90.53443700	#	H	TIP4P
8224	2504	2	-1.1128	30.57288700	14.50756300	85.48470600	#	O	TIP4P
8225	2504	3	0.5564	30.38586300	14.70839400	84.56768900	#	H	TIP4P
8226	2504	3	0.5564	29.79314100	14.04594000	85.79314000	#	H	TIP4P
8227	2505	2	-1.1128	5.21953400	32.66884400	80.79344100	#	O	TIP4P
8228	2505	3	0.5564	5.85667000	32.05161400	81.15304800	#	H	TIP4P
8229	2505	3	0.5564	4.48278600	32.12181300	80.52106000	#	H	TIP4P
8230	2506	2	-1.1128	20.04200600	17.24906200	85.17211900	#	O	TIP4P
8231	2506	3	0.5564	20.57960200	17.09699300	84.39488200	#	H	TIP4P
8232	2506	3	0.5564	20.04150300	16.40936300	85.63161500	#	H	TIP4P
8233	2507	2	-1.1128	27.78185600	4.30434700	80.44700100	#	O	TIP4P
8234	2507	3	0.5564	28.42041900	4.42383500	81.14999000	#	H	TIP4P
8235	2507	3	0.5564	28.19107300	4.70556500	79.68032200	#	H	TIP4P
8236	2508	2	-1.1128	4.74155200	18.39503400	80.65189300	#	O	TIP4P
8237	2508	3	0.5564	4.70505700	17.73074700	81.34009600	#	H	TIP4P
8238	2508	3	0.5564	5.06440000	19.18055000	81.09344100	#	H	TIP4P
8239	2509	2	-1.1128	15.41377300	23.59900500	86.95981300	#	O	TIP4P
8240	2509	3	0.5564	15.45250700	22.66190100	86.76858400	#	H	TIP4P
8241	2509	3	0.5564	14.67357800	23.69113000	87.55969300	#	H	TIP4P
8242	2510	2	-1.1128	2.77371900	30.69507400	84.14183500	#	O	TIP4P
8243	2510	3	0.5564	2.05591100	30.66523700	84.77436400	#	H	TIP4P
8244	2510	3	0.5564	3.54335400	30.41808900	84.63899900	#	H	TIP4P
8245	2511	2	-1.1128	3.31999700	32.51167000	86.68213000	#	O	TIP4P
8246	2511	3	0.5564	2.71880300	33.15898000	87.05062300	#	H	TIP4P
8247	2511	3	0.5564	3.90820600	33.02065200	86.12429600	#	H	TIP4P
8248	2512	2	-1.1128	13.51666800	20.99081000	82.98705000	#	O	TIP4P
8249	2512	3	0.5564	12.81761900	20.76135900	82.37474800	#	H	TIP4P
8250	2512	3	0.5564	13.06457100	21.39922000	83.72531900	#	H	TIP4P
8251	2513	2	-1.1128	29.25435700	31.36172500	78.94797000	#	O	TIP4P
8252	2513	3	0.5564	29.19026800	30.40730100	78.91332200	#	H	TIP4P
8253	2513	3	0.5564	28.34595100	31.66343400	78.94728300	#	H	TIP4P
8254	2514	2	-1.1128	20.14892100	18.74893600	82.13459000	#	O	TIP4P
8255	2514	3	0.5564	19.82653700	19.26197400	82.87559700	#	H	TIP4P
8256	2514	3	0.5564	19.40385700	18.69779100	81.53584600	#	H	TIP4P
8257	2515	2	-1.1128	28.19414800	9.99286300	87.36255000	#	O	TIP4P
8258	2515	3	0.5564	27.91592400	10.89167100	87.18657500	#	H	TIP4P
8259	2515	3	0.5564	28.61764200	9.70971500	86.55217300	#	H	TIP4P
8260	2516	2	-1.1128	28.78030200	6.62312400	83.38678300	#	O	TIP4P
8261	2516	3	0.5564	29.22531800	7.44287100	83.17182500	#	H	TIP4P
8262	2516	3	0.5564	27.85518400	6.80052300	83.21672700	#	H	TIP4P
8263	2517	2	-1.1128	19.91191000	22.18436500	93.85596400	#	O	TIP4P
8264	2517	3	0.5564	19.02007600	22.50009800	94.00148300	#	H	TIP4P
8265	2517	3	0.5564	20.45786000	22.96767600	93.92374700	#	H	TIP4P
8266	2518	2	-1.1128	16.52144200	10.34530300	81.13593900	#	O	TIP4P
8267	2518	3	0.5564	16.16341700	11.00424000	81.73079300	#	H	TIP4P
8268	2518	3	0.5564	16.31397900	9.50851300	81.55183900	#	H	TIP4P
8269	2519	2	-1.1128	27.30722000	14.99405600	88.43306700	#	O	TIP4P
8270	2519	3	0.5564	26.67043700	15.66204300	88.68709900	#	H	TIP4P
8271	2519	3	0.5564	27.62003500	15.27534400	87.57326700	#	H	TIP4P
8272	2520	2	-1.1128	27.29923000	18.92066800	84.49381500	#	O	TIP4P
8273	2520	3	0.5564	27.73192700	18.08815300	84.68335400	#	H	TIP4P
8274	2520	3	0.5564	27.44580500	19.05976400	83.55818700	#	H	TIP4P
8275	2521	2	-1.1128	12.44040000	28.13092600	94.00019800	#	O	TIP4P
8276	2521	3	0.5564	13.22093200	27.57684900	94.00018000	#	H	TIP4P
8277	2521	3	0.5564	12.78108600	29.02544500	94.00023600	#	H	TIP4P
8278	2522	2	-1.1128	30.24585200	1.50070600	90.95771600	#	O	TIP4P
8279	2522	3	0.5564	29.30069500	1.49998800	91.10907900	#	H	TIP4P
8280	2522	3	0.5564	30.41910900	2.33722000	90.52590900	#	H	TIP4P
8281	2523	2	-1.1128	17.97025300	19.94892100	93.83034200	#	O	TIP4P
8282	2523	3	0.5564	17.83544700	19.01657600	94.00002400	#	H	TIP4P
8283	2523	3	0.5564	17.08690900	20.30716300	93.74317800	#	H	TIP4P
8284	2524	2	-1.1128	31.02541600	24.74011500	87.86684000	#	O	TIP4P
8285	2524	3	0.5564	31.14951300	23.79925500	87.99179700	#	H	TIP4P
8286	2524	3	0.5564	31.14955800	24.87588700	86.92748600	#	H	TIP4P
8287	2525	2	-1.1128	13.17797100	18.24920700	81.31567500	#	O	TIP4P
8288	2525	3	0.5564	12.43496300	18.08068200	81.89513200	#	H	TIP4P
8289	2525	3	0.5564	12.90904300	17.89031900	80.47003400	#	H	TIP4P
8290	2526	2	-1.1128	22.47681600	33.25368800	92.71485200	#	O	TIP4P
8291	2526	3	0.5564	22.75117100	32.39442800	92.39448800	#	H	TIP4P
8292	2526	3	0.5564	22.82533400	33.30038100	93.60512500	#	H	TIP4P
8293	2527	2	-1.1128	8.32545600	25.63934900	78.20237300	#	O	TIP4P
8294	2527	3	0.5564	7.46693500	26.04417000	78.07870900	#	H	TIP4P
8295	2527	3	0.5564	8.18701200	24.71509000	77.99546800	#	H	TIP4P
8296	2528	2	-1.1128	13.07280000	9.77551900	83.41926800	#	O	TIP4P
8297	2528	3	0.5564	13.76003900	10.44080300	83.38278200	#	H	TIP4P
8298	2528	3	0.5564	12.76812500	9.69538800	82.51539700	#	H	TIP4P
8299	2529	2	-1.1128	31.10360200	7.43610000	86.56544900	#	O	TIP4P
8300	2529	3	0.5564	30.36196000	7.03773300	86.10992400	#	H	TIP4P
8301	2529	3	0.5564	30.72091900	7.82700000	87.35093100	#	H	TIP4P
8302	2530	2	-1.1128	25.35106200	3.47667500	88.72479000	#	O	TIP4P
8303	2530	3	0.5564	26.06532900	3.88726700	88.23748300	#	H	TIP4P
8304	2530	3	0.5564	25.03837800	4.16203300	89.31533600	#	H	TIP4P
8305	2531	2	-1.1128	22.51321700	8.58091800	91.84941600	#	O	TIP4P
8306	2531	3	0.5564	21.70530900	8.12350700	91.61640800	#	H	TIP4P
8307	2531	3	0.5564	22.33161500	8.96751700	92.70603400	#	H	TIP4P
8308	2532	2	-1.1128	22.54915200	17.37113000	86.29534500	#	O	TIP4P
8309	2532	3	0.5564	22.12466200	17.51010700	87.14194100	#	H	TIP4P
8310	2532	3	0.5564	22.72656200	16.43093200	86.26730200	#	H	TIP4P
8311	2533	2	-1.1128	26.93919900	23.57793700	80.25920200	#	O	TIP4P
8312	2533	3	0.5564	27.03295900	22.85769200	79.63575300	#	H	TIP4P
8313	2533	3	0.5564	27.63449400	23.43210000	80.90070600	#	H	TIP4P
8314	2534	2	-1.1128	23.19436600	30.55422200	90.39843800	#	O	TIP4P
8315	2534	3	0.5564	23.82316800	31.23015600	90.14554800	#	H	TIP4P
8316	2534	3	0.5564	23.66407000	30.01569400	91.03530300	#	H	TIP4P
8317	2535	2	-1.1128	13.81481800	30.34175400	86.25029400	#	O	TIP4P
8318	2535	3	0.5564	14.38492100	30.90070500	86.77829700	#	H	TIP4P
8319	2535	3	0.5564	14.40504400	29.69655400	85.86095900	#	H	TIP4P
8320	2536	2	-1.1128	2.58300200	32.59693500	90.04148900	#	O	TIP4P
8321	2536	3	0.5564	1.70622700	32.94189100	89.87266200	#	H	TIP4P
8322	2536	3	0.5564	2.91396000	33.12704800	90.76652500	#	H	TIP4P
8323	2537	2	-1.1128	17.30889100	25.59973000	88.47443200	#	O	TIP4P
8324	2537	3	0.5564	16.36505900	25.74034400	88.39932300	#	H	TIP4P
8325	2537	3	0.5564	17.40564700	24.64956800	88.53816900	#	H	TIP4P
8326	2538	2	-1.1128	30.60662100	11.36463300	87.50112100	#	O	TIP4P
8327	2538	3	0.5564	31.14954100	12.00634000	87.04321100	#	H	TIP4P
8328	2538	3	0.5564	31.14954400	10.57743300	87.54332800	#	H	TIP4P
8329	2539	2	-1.1128	5.97708400	29.98571300	87.28420900	#	O	TIP4P
8330	2539	3	0.5564	5.24694800	30.40113100	86.82534000	#	H	TIP4P
8331	2539	3	0.5564	6.01915100	29.10229000	86.91811500	#	H	TIP4P
8332	2540	2	-1.1128	27.98347400	25.76242100	89.27287000	#	O	TIP4P
8333	2540	3	0.5564	27.44687400	25.64742400	88.48860800	#	H	TIP4P
8334	2540	3	0.5564	28.64979100	25.07807600	89.21022200	#	H	TIP4P
8335	2541	2	-1.1128	1.49972000	4.30616900	80.91062300	#	O	TIP4P
8336	2541	3	0.5564	1.65162900	3.53511800	80.36414800	#	H	TIP4P
8337	2541	3	0.5564	2.26942200	4.85697500	80.76778200	#	H	TIP4P
8338	2542	2	-1.1128	27.76480700	21.63476700	90.72488000	#	O	TIP4P
8339	2542	3	0.5564	28.34585800	22.38692700	90.83831300	#	H	TIP4P
8340	2542	3	0.5564	28.05616000	21.00487000	91.38410300	#	H	TIP4P
8341	2543	2	-1.1128	22.82237700	5.38883300	80.00060200	#	O	TIP4P
8342	2543	3	0.5564	22.11444200	5.29562700	79.36312900	#	H	TIP4P
8343	2543	3	0.5564	22.99679300	6.32955800	80.02971600	#	H	TIP4P
8344	2544	2	-1.1128	4.15369900	7.18837200	86.18037000	#	O	TIP4P
8345	2544	3	0.5564	3.66893900	7.95678200	86.48167500	#	H	TIP4P
8346	2544	3	0.5564	3.62010500	6.83114400	85.47051300	#	H	TIP4P
8347	2545	2	-1.1128	21.10730400	15.29706100	90.96814800	#	O	TIP4P
8348	2545	3	0.5564	21.74038700	14.80877200	90.44182900	#	H	TIP4P
8349	2545	3	0.5564	20.41521400	14.66407200	91.15937600	#	H	TIP4P
8350	2546	2	-1.1128	8.51811000	28.23964300	88.63087900	#	O	TIP4P
8351	2546	3	0.5564	8.32178700	29.16094500	88.46090500	#	H	TIP4P
8352	2546	3	0.5564	8.87998200	28.23090000	89.51699600	#	H	TIP4P
8353	2547	1	0	1.25575100	5.07505200	98.91075000	#	C	graphene
8354	2547	1	0	0.00000100	7.25007500	98.91075000	#	C	graphene
8355	2547	1	0	6.27875100	0.72500700	98.91075000	#	C	graphene
8356	2547	1	0	5.02300100	2.90003000	98.91075000	#	C	graphene
8357	2547	1	0	3.76725100	5.07505200	98.91075000	#	C	graphene
8358	2547	1	0	2.51150100	7.25007500	98.91075000	#	C	graphene
8359	2547	1	0	1.25575100	9.42509800	98.91075000	#	C	graphene
8360	2547	1	0	0.00000100	11.60012000	98.91075000	#	C	graphene
8361	2547	1	0	8.79025100	0.72500700	98.91075000	#	C	graphene
8362	2547	1	0	7.53450100	2.90003000	98.91075000	#	C	graphene
8363	2547	1	0	6.27875100	5.07505200	98.91075000	#	C	graphene
8364	2547	1	0	5.02300100	7.25007500	98.91075000	#	C	graphene
8365	2547	1	0	3.76725100	9.42509800	98.91075000	#	C	graphene
8366	2547	1	0	2.51150100	11.60012000	98.91075000	#	C	graphene
8367	2547	1	0	1.25575100	13.77514300	98.91075000	#	C	graphene
8368	2547	1	0	0.00000100	15.95016600	98.91075000	#	C	graphene
8369	2547	1	0	11.30175100	0.72500700	98.91075000	#	C	graphene
8370	2547	1	0	10.04600100	2.90003000	98.91075000	#	C	graphene
8371	2547	1	0	8.79025100	5.07505200	98.91075000	#	C	graphene
8372	2547	1	0	7.53450100	7.25007500	98.91075000	#	C	graphene
8373	2547	1	0	6.27875100	9.42509800	98.91075000	#	C	graphene
8374	2547	1	0	5.02300100	11.60012000	98.91075000	#	C	graphene
8375	2547	1	0	3.76725100	13.77514300	98.91075000	#	C	graphene
8376	2547	1	0	2.51150100	15.95016600	98.91075000	#	C	graphene
8377	2547	1	0	1.25575100	18.12518800	98.91075000	#	C	graphene
8378	2547	1	0	0.00000100	20.30021100	98.91075000	#	C	graphene
8379	2547	1	0	13.81325100	0.72500700	98.91075000	#	C	graphene
8380	2547	1	0	12.55750100	2.90003000	98.91075000	#	C	graphene
8381	2547	1	0	11.30175100	5.07505200	98.91075000	#	C	graphene
8382	2547	1	0	10.04600100	7.25007500	98.91075000	#	C	graphene
8383	2547	1	0	8.79025100	9.42509800	98.91075000	#	C	graphene
8384	2547	1	0	7.53450100	11.60012000	98.91075000	#	C	graphene
8385	2547	1	0	6.27875100	13.77514300	98.91075000	#	C	graphene
8386	2547	1	0	5.02300100	15.95016600	98.91075000	#	C	graphene
8387	2547	1	0	3.76725100	18.12518800	98.91075000	#	C	graphene
8388	2547	1	0	2.51150100	20.30021100	98.91075000	#	C	graphene
8389	2547	1	0	1.25575100	22.47523400	98.91075000	#	C	graphene
8390	2547	1	0	0.00000100	24.65025700	98.91075000	#	C	graphene
8391	2547	1	0	16.32475000	0.72500700	98.91075000	#	C	graphene
8392	2547	1	0	15.06900100	2.90003000	98.91075000	#	C	graphene
8393	2547	1	0	13.81325100	5.07505200	98.91075000	#	C	graphene
8394	2547	1	0	12.55750100	7.25007500	98.91075000	#	C	graphene
8395	2547	1	0	11.30175100	9.42509800	98.91075000	#	C	graphene
8396	2547	1	0	10.04600100	11.60012000	98.91075000	#	C	graphene
8397	2547	1	0	8.79025100	13.77514300	98.91075000	#	C	graphene
8398	2547	1	0	7.53450100	15.95016600	98.91075000	#	C	graphene
8399	2547	1	0	6.27875100	18.12518800	98.91075000	#	C	graphene
8400	2547	1	0	5.02300100	20.30021100	98.91075000	#	C	graphene
8401	2547	1	0	3.76725100	22.47523400	98.91075000	#	C	graphene
8402	2547	1	0	2.51150100	24.65025700	98.91075000	#	C	graphene
8403	2547	1	0	1.25575100	26.82527900	98.91075000	#	C	graphene
8404	2547	1	0	0.00000100	29.00030200	98.91075000	#	C	graphene
8405	2547	1	0	18.83625000	0.72500700	98.91075000	#	C	graphene
8406	2547	1	0	17.58050000	2.90003000	98.91075000	#	C	graphene
8407	2547	1	0	16.32475000	5.07505200	98.91075000	#	C	graphene
8408	2547	1	0	15.06900100	7.25007500	98.91075000	#	C	graphene
8409	2547	1	0	13.81325100	9.42509800	98.91075000	#	C	graphene
8410	2547	1	0	12.55750100	11.60012000	98.91075000	#	C	graphene
8411	2547	1	0	11.30175100	13.77514300	98.91075000	#	C	graphene
8412	2547	1	0	10.04600100	15.95016600	98.91075000	#	C	graphene
8413	2547	1	0	8.79025100	18.12518800	98.91075000	#	C	graphene
8414	2547	1	0	7.53450100	20.30021100	98.91075000	#	C	graphene
8415	2547	1	0	6.27875100	22.47523400	98.91075000	#	C	graphene
8416	2547	1	0	5.02300100	24.65025700	98.91075000	#	C	graphene
8417	2547	1	0	3.76725100	26.82527900	98.91075000	#	C	graphene
8418	2547	1	0	2.51150100	29.00030200	98.91075000	#	C	graphene
8419	2547	1	0	1.25575100	31.17532500	98.91075000	#	C	graphene
8420	2547	1	0	0.00000100	33.35034700	98.91075000	#	C	graphene
8421	2547	1	0	21.34775000	0.72500700	98.91075000	#	C	graphene
8422	2547	1	0	20.09200000	2.90003000	98.91075000	#	C	graphene
8423	2547	1	0	18.83625000	5.07505200	98.91075000	#	C	graphene
8424	2547	1	0	17.58050000	7.25007500	98.91075000	#	C	graphene
8425	2547	1	0	16.32475000	9.42509800	98.91075000	#	C	graphene
8426	2547	1	0	15.06900100	11.60012000	98.91075000	#	C	graphene
8427	2547	1	0	13.81325100	13.77514300	98.91075000	#	C	graphene
8428	2547	1	0	12.55750100	15.95016600	98.91075000	#	C	graphene
8429	2547	1	0	11.30175100	18.12518800	98.91075000	#	C	graphene
8430	2547	1	0	10.04600100	20.30021100	98.91075000	#	C	graphene
8431	2547	1	0	8.79025100	22.47523400	98.91075000	#	C	graphene
8432	2547	1	0	7.53450100	24.65025700	98.91075000	#	C	graphene
8433	2547	1	0	6.27875100	26.82527900	98.91075000	#	C	graphene
8434	2547	1	0	5.02300100	29.00030200	98.91075000	#	C	graphene
8435	2547	1	0	3.76725100	31.17532500	98.91075000	#	C	graphene
8436	2547	1	0	2.51150100	33.35034700	98.91075000	#	C	graphene
8437	2547	1	0	23.85925000	0.72500700	98.91075000	#	C	graphene
8438	2547	1	0	22.60350000	2.90003000	98.91075000	#	C	graphene
8439	2547	1	0	21.34775000	5.07505200	98.91075000	#	C	graphene
8440	2547	1	0	20.09200000	7.25007500	98.91075000	#	C	graphene
8441	2547	1	0	18.83625000	9.42509800	98.91075000	#	C	graphene
8442	2547	1	0	17.58050000	11.60012000	98.91075000	#	C	graphene
8443	2547	1	0	16.32475000	13.77514300	98.91075000	#	C	graphene
8444	2547	1	0	15.06900100	15.95016600	98.91075000	#	C	graphene
8445	2547	1	0	13.81325100	18.12518800	98.91075000	#	C	graphene
8446	2547	1	0	12.55750100	20.30021100	98.91075000	#	C	graphene
8447	2547	1	0	11.30175100	22.47523400	98.91075000	#	C	graphene
8448	2547	1	0	10.04600100	24.65025700	98.91075000	#	C	graphene
8449	2547	1	0	8.79025100	26.82527900	98.91075000	#	C	graphene
8450	2547	1	0	7.53450100	29.00030200	98.91075000	#	C	graphene
8451	2547	1	0	6.27875100	31.17532500	98.91075000	#	C	graphene
8452	2547	1	0	5.02300100	33.35034700	98.91075000	#	C	graphene
8453	2547	1	0	26.37075000	0.72500700	98.91075000	#	C	graphene
8454	2547	1	0	25.11500000	2.90003000	98.91075000	#	C	graphene
8455	2547	1	0	23.85925000	5.07505200	98.91075000	#	C	graphene
8456	2547	1	0	22.60350000	7.25007500	98.91075000	#	C	graphene
8457	2547	1	0	21.34775000	9.42509800	98.91075000	#	C	graphene
8458	2547	1	0	20.09200000	11.60012000	98.91075000	#	C	graphene
8459	2547	1	0	18.83625000	13.77514300	98.91075000	#	C	graphene
8460	2547	1	0	17.58050000	15.95016600	98.91075000	#	C	graphene
8461	2547	1	0	16.32475000	18.12518800	98.91075000	#	C	graphene
8462	2547	1	0	15.06900100	20.30021100	98.91075000	#	C	graphene
8463	2547	1	0	13.81325100	22.47523400	98.91075000	#	C	graphene
8464	2547	1	0	12.55750100	24.65025700	98.91075000	#	C	graphene
8465	2547	1	0	11.30175100	26.82527900	98.91075000	#	C	graphene
8466	2547	1	0	10.04600100	29.00030200	98.91075000	#	C	graphene
8467	2547	1	0	8.79025100	31.17532500	98.91075000	#	C	graphene
8468	2547	1	0	7.53450100	33.35034700	98.91075000	#	C	graphene
8469	2547	1	0	28.88225000	0.72500700	98.91075000	#	C	graphene
8470	2547	1	0	27.62650000	2.90003000	98.91075000	#	C	graphene
8471	2547	1	0	26.37075000	5.07505200	98.91075000	#	C	graphene
8472	2547	1	0	25.11500000	7.25007500	98.91075000	#	C	graphene
8473	2547	1	0	23.85925000	9.42509800	98.91075000	#	C	graphene
8474	2547	1	0	22.60350000	11.60012000	98.91075000	#	C	graphene
8475	2547	1	0	21.34775000	13.77514300	98.91075000	#	C	graphene
8476	2547	1	0	20.09200000	15.95016600	98.91075000	#	C	graphene
8477	2547	1	0	18.83625000	18.12518800	98.91075000	#	C	graphene
8478	2547	1	0	17.58050000	20.30021100	98.91075000	#	C	graphene
8479	2547	1	0	16.32475000	22.47523400	98.91075000	#	C	graphene
8480	2547	1	0	15.06900100	24.65025700	98.91075000	#	C	graphene
8481	2547	1	0	13.81325100	26.82527900	98.91075000	#	C	graphene
8482	2547	1	0	12.55750100	29.00030200	98.91075000	#	C	graphene
8483	2547	1	0	11.30175100	31.17532500	98.91075000	#	C	graphene
8484	2547	1	0	10.04600100	33.35034700	98.91075000	#	C	graphene
8485	2547	1	0	31.39375000	0.72500700	98.91075000	#	C	graphene
8486	2547	1	0	30.13800000	2.90003000	98.91075000	#	C	graphene
8487	2547	1	0	28.88225000	5.07505200	98.91075000	#	C	graphene
8488	2547	1	0	27.62650000	7.25007500	98.91075000	#	C	graphene
8489	2547	1	0	26.37075000	9.42509800	98.91075000	#	C	graphene
8490	2547	1	0	25.11500000	11.60012000	98.91075000	#	C	graphene
8491	2547	1	0	23.85925000	13.77514300	98.91075000	#	C	graphene
8492	2547	1	0	22.60350000	15.95016600	98.91075000	#	C	graphene
8493	2547	1	0	21.34775000	18.12518800	98.91075000	#	C	graphene
8494	2547	1	0	20.09200000	20.30021100	98.91075000	#	C	graphene
8495	2547	1	0	18.83625000	22.47523400	98.91075000	#	C	graphene
8496	2547	1	0	17.58050000	24.65025700	98.91075000	#	C	graphene
8497	2547	1	0	16.32475000	26.82527900	98.91075000	#	C	graphene
8498	2547	1	0	15.06900100	29.00030200	98.91075000	#	C	graphene
8499	2547	1	0	13.81325100	31.17532500	98.91075000	#	C	graphene
8500	2547	1	0	12.55750100	33.35034700	98.91075000	#	C	graphene
8501	2547	1	0	31.39375000	5.07505200	98.91075000	#	C	graphene
8502	2547	1	0	30.13800000	7.25007500	98.91075000	#	C	graphene
8503	2547	1	0	28.88225000	9.42509800	98.91075000	#	C	graphene
8504	2547	1	0	27.62650000	11.60012000	98.91075000	#	C	graphene
8505	2547	1	0	26.37075000	13.77514300	98.91075000	#	C	graphene
8506	2547	1	0	25.11500000	15.95016600	98.91075000	#	C	graphene
8507	2547	1	0	23.85925000	18.12518800	98.91075000	#	C	graphene
8508	2547	1	0	22.60350000	20.30021100	98.91075000	#	C	graphene
8509	2547	1	0	21.34775000	22.47523400	98.91075000	#	C	graphene
8510	2547	1	0	20.09200000	24.65025700	98.91075000	#	C	graphene
8511	2547	1	0	18.83625000	26.82527900	98.91075000	#	C	graphene
8512	2547	1	0	17.58050000	29.00030200	98.91075000	#	C	graphene
8513	2547	1	0	16.32475000	31.17532500	98.91075000	#	C	graphene
8514	2547	1	0	15.06900100	33.35034700	98.91075000	#	C	graphene
8515	2547	1	0	31.39375000	9.42509800	98.91075000	#	C	graphene
8516	2547	1	0	30.13800000	11.60012000	98.91075000	#	C	graphene
8517	2547	1	0	28.88225000	13.77514300	98.91075000	#	C	graphene
8518	2547	1	0	27.62650000	15.95016600	98.91075000	#	C	graphene
8519	2547	1	0	26.37075000	18.12518800	98.91075000	#	C	graphene
8520	2547	1	0	25.11500000	20.30021100	98.91075000	#	C	graphene
8521	2547	1	0	23.85925000	22.47523400	98.91075000	#	C	graphene
8522	2547	1	0	22.60350000	24.65025700	98.91075000	#	C	graphene
8523	2547	1	0	21.34775000	26.82527900	98.91075000	#	C	graphene
8524	2547	1	0	20.09200000	29.00030200	98.91075000	#	C	graphene
8525	2547	1	0	18.83625000	31.17532500	98.91075000	#	C	graphene
8526	2547	1	0	17.58050000	33.35034700	98.91075000	#	C	graphene
8527	2547	1	0	31.39375000	13.77514300	98.91075000	#	C	graphene
8528	2547	1	0	30.13800000	15.95016600	98.91075000	#	C	graphene
8529	2547	1	0	28.88225000	18.12518800	98.91075000	#	C	graphene
8530	2547	1	0	27.62650000	20.30021100	98.91075000	#	C	graphene
8531	2547	1	0	26.37075000	22.47523400	98.91075000	#	C	graphene
8532	2547	1	0	25.11500000	24.65025700	98.91075000	#	C	graphene
8533	2547	1	0	23.85925000	26.82527900	98.91075000	#	C	graphene
8534	2547	1	0	22.60350000	29.00030200	98.91075000	#	C	graphene
8535	2547	1	0	21.34775000	31.17532500	98.91075000	#	C	graphene
8536	2547	1	0	20.09200000	33.35034700	98.91075000	#	C	graphene
8537	2547	1	0	31.39375000	18.12518800	98.91075000	#	C	graphene
8538	2547	1	0	30.13800000	20.30021100	98.91075000	#	C	graphene
8539	2547	1	0	28.88225000	22.47523400	98.91075000	#	C	graphene
8540	2547	1	0	27.62650000	24.65025700	98.91075000	#	C	graphene
8541	2547	1	0	26.37075000	26.82527900	98.91075000	#	C	graphene
8542	2547	1	0	25.11500000	29.00030200	98.91075000	#	C	graphene
8543	2547	1	0	23.85925000	31.17532500	98.91075000	#	C	graphene
8544	2547	1	0	22.60350000	33.35034700	98.91075000	#	C	graphene
8545	2547	1	0	31.39375000	22.47523400	98.91075000	#	C	graphene
8546	2547	1	0	30.13800000	24.65025700	98.91075000	#	C	graphene
8547	2547	1	0	28.88225000	26.82527900	98.91075000	#	C	graphene
8548	2547	1	0	27.62650000	29.00030200	98.91075000	#	C	graphene
8549	2547	1	0	26.37075000	31.17532500	98.91075000	#	C	graphene
8550	2547	1	0	25.11500000	33.35034700	98.91075000	#	C	graphene
8551	2547	1	0	31.39375000	26.82527900	98.91075000	#	C	graphene
8552	2547	1	0	30.13800000	29.00030200	98.91075000	#	C	graphene
8553	2547	1	0	28.88225000	31.17532500	98.91075000	#	C	graphene
8554	2547	1	0	27.62650000	33.35034700	98.91075000	#	C	graphene
8555	2547	1	0	31.39375000	31.17532500	98.91075000	#	C	graphene
8556	2547	1	0	30.13800000	33.35034700	98.91075000	#	C	graphene
8557	2547	1	0	-0.00000100	1.45001600	98.91075000	#	C	graphene
8558	2547	1	0	2.51149900	1.45001600	98.91075000	#	C	graphene
8559	2547	1	0	1.25574900	3.62503900	98.91075000	#	C	graphene
8560	2547	1	0	-0.00000100	5.80006100	98.91075000	#	C	graphene
8561	2547	1	0	5.02299800	1.45001600	98.91075000	#	C	graphene
8562	2547	1	0	3.76724900	3.62503900	98.91075000	#	C	graphene
8563	2547	1	0	2.51149900	5.80006100	98.91075000	#	C	graphene
8564	2547	1	0	1.25574900	7.97508400	98.91075000	#	C	graphene
8565	2547	1	0	-0.00000100	10.15010700	98.91075000	#	C	graphene
8566	2547	1	0	7.53449800	1.45001600	98.91075000	#	C	graphene
8567	2547	1	0	6.27874800	3.62503900	98.91075000	#	C	graphene
8568	2547	1	0	5.02299800	5.80006100	98.91075000	#	C	graphene
8569	2547	1	0	3.76724900	7.97508400	98.91075000	#	C	graphene
8570	2547	1	0	2.51149900	10.15010700	98.91075000	#	C	graphene
8571	2547	1	0	1.25574900	12.32512900	98.91075000	#	C	graphene
8572	2547	1	0	-0.00000100	14.50015200	98.91075000	#	C	graphene
8573	2547	1	0	10.04599800	1.45001600	98.91075000	#	C	graphene
8574	2547	1	0	8.79024800	3.62503900	98.91075000	#	C	graphene
8575	2547	1	0	7.53449800	5.80006100	98.91075000	#	C	graphene
8576	2547	1	0	6.27874800	7.97508400	98.91075000	#	C	graphene
8577	2547	1	0	5.02299800	10.15010700	98.91075000	#	C	graphene
8578	2547	1	0	3.76724900	12.32512900	98.91075000	#	C	graphene
8579	2547	1	0	2.51149900	14.50015200	98.91075000	#	C	graphene
8580	2547	1	0	1.25574900	16.67517500	98.91075000	#	C	graphene
8581	2547	1	0	-0.00000100	18.85019700	98.91075000	#	C	graphene
8582	2547	1	0	12.55749800	1.45001600	98.91075000	#	C	graphene
8583	2547	1	0	11.30174800	3.62503900	98.91075000	#	C	graphene
8584	2547	1	0	10.04599800	5.80006100	98.91075000	#	C	graphene
8585	2547	1	0	8.79024800	7.97508400	98.91075000	#	C	graphene
8586	2547	1	0	7.53449800	10.15010700	98.91075000	#	C	graphene
8587	2547	1	0	6.27874800	12.32512900	98.91075000	#	C	graphene
8588	2547	1	0	5.02299800	14.50015200	98.91075000	#	C	graphene
8589	2547	1	0	3.76724900	16.67517500	98.91075000	#	C	graphene
8590	2547	1	0	2.51149900	18.85019700	98.91075000	#	C	graphene
8591	2547	1	0	1.25574900	21.02522000	98.91075000	#	C	graphene
8592	2547	1	0	-0.00000100	23.20024300	98.91075000	#	C	graphene
8593	2547	1	0	15.06899800	1.45001600	98.91075000	#	C	graphene
8594	2547	1	0	13.81324800	3.62503900	98.91075000	#	C	graphene
8595	2547	1	0	12.55749800	5.80006100	98.91075000	#	C	graphene
8596	2547	1	0	11.30174800	7.97508400	98.91075000	#	C	graphene
8597	2547	1	0	10.04599800	10.15010700	98.91075000	#	C	graphene
8598	2547	1	0	8.79024800	12.32512900	98.91075000	#	C	graphene
8599	2547	1	0	7.53449800	14.50015200	98.91075000	#	C	graphene
8600	2547	1	0	6.27874800	16.67517500	98.91075000	#	C	graphene
8601	2547	1	0	5.02299800	18.85019700	98.91075000	#	C	graphene
8602	2547	1	0	3.76724900	21.02522000	98.91075000	#	C	graphene
8603	2547	1	0	2.51149900	23.20024300	98.91075000	#	C	graphene
8604	2547	1	0	1.25574900	25.37526600	98.91075000	#	C	graphene
8605	2547	1	0	-0.00000100	27.55028800	98.91075000	#	C	graphene
8606	2547	1	0	17.58049800	1.45001600	98.91075000	#	C	graphene
8607	2547	1	0	16.32474800	3.62503900	98.91075000	#	C	graphene
8608	2547	1	0	15.06899800	5.80006100	98.91075000	#	C	graphene
8609	2547	1	0	13.81324800	7.97508400	98.91075000	#	C	graphene
8610	2547	1	0	12.55749800	10.15010700	98.91075000	#	C	graphene
8611	2547	1	0	11.30174800	12.32512900	98.91075000	#	C	graphene
8612	2547	1	0	10.04599800	14.50015200	98.91075000	#	C	graphene
8613	2547	1	0	8.79024800	16.67517500	98.91075000	#	C	graphene
8614	2547	1	0	7.53449800	18.85019700	98.91075000	#	C	graphene
8615	2547	1	0	6.27874800	21.02522000	98.91075000	#	C	graphene
8616	2547	1	0	5.02299800	23.20024300	98.91075000	#	C	graphene
8617	2547	1	0	3.76724900	25.37526600	98.91075000	#	C	graphene
8618	2547	1	0	2.51149900	27.55028800	98.91075000	#	C	graphene
8619	2547	1	0	1.25574900	29.72531100	98.91075000	#	C	graphene
8620	2547	1	0	-0.00000100	31.90033400	98.91075000	#	C	graphene
8621	2547	1	0	20.09199800	1.45001600	98.91075000	#	C	graphene
8622	2547	1	0	18.83624800	3.62503900	98.91075000	#	C	graphene
8623	2547	1	0	17.58049800	5.80006100	98.91075000	#	C	graphene
8624	2547	1	0	16.32474800	7.97508400	98.91075000	#	C	graphene
8625	2547	1	0	15.06899800	10.15010700	98.91075000	#	C	graphene
8626	2547	1	0	13.81324800	12.32512900	98.91075000	#	C	graphene
8627	2547	1	0	12.55749800	14.50015200	98.91075000	#	C	graphene
8628	2547	1	0	11.30174800	16.67517500	98.91075000	#	C	graphene
8629	2547	1	0	10.04599800	18.85019700	98.91075000	#	C	graphene
8630	2547	1	0	8.79024800	21.02522000	98.91075000	#	C	graphene
8631	2547	1	0	7.53449800	23.20024300	98.91075000	#	C	graphene
8632	2547	1	0	6.27874800	25.37526600	98.91075000	#	C	graphene
8633	2547	1	0	5.02299800	27.55028800	98.91075000	#	C	graphene
8634	2547	1	0	3.76724900	29.72531100	98.91075000	#	C	graphene
8635	2547	1	0	2.51149900	31.90033400	98.91075000	#	C	graphene
8636	2547	1	0	1.25574900	34.07535600	98.91075000	#	C	graphene
8637	2547	1	0	22.60349800	1.45001600	98.91075000	#	C	graphene
8638	2547	1	0	21.34774800	3.62503900	98.91075000	#	C	graphene
8639	2547	1	0	20.09199800	5.80006100	98.91075000	#	C	graphene
8640	2547	1	0	18.83624800	7.97508400	98.91075000	#	C	graphene
8641	2547	1	0	17.58049800	10.15010700	98.91075000	#	C	graphene
8642	2547	1	0	16.32474800	12.32512900	98.91075000	#	C	graphene
8643	2547	1	0	15.06899800	14.50015200	98.91075000	#	C	graphene
8644	2547	1	0	13.81324800	16.67517500	98.91075000	#	C	graphene
8645	2547	1	0	12.55749800	18.85019700	98.91075000	#	C	graphene
8646	2547	1	0	11.30174800	21.02522000	98.91075000	#	C	graphene
8647	2547	1	0	10.04599800	23.20024300	98.91075000	#	C	graphene
8648	2547	1	0	8.79024800	25.37526600	98.91075000	#	C	graphene
8649	2547	1	0	7.53449800	27.55028800	98.91075000	#	C	graphene
8650	2547	1	0	6.27874800	29.72531100	98.91075000	#	C	graphene
8651	2547	1	0	5.02299800	31.90033400	98.91075000	#	C	graphene
8652	2547	1	0	3.76724900	34.07535600	98.91075000	#	C	graphene
8653	2547	1	0	25.11499800	1.45001600	98.91075000	#	C	graphene
8654	2547	1	0	23.85924800	3.62503900	98.91075000	#	C	graphene
8655	2547	1	0	22.60349800	5.80006100	98.91075000	#	C	graphene
8656	2547	1	0	21.34774800	7.97508400	98.91075000	#	C	graphene
8657	2547	1	0	20.09199800	10.15010700	98.91075000	#	C	graphene
8658	2547	1	0	18.83624800	12.32512900	98.91075000	#	C	graphene
8659	2547	1	0	17.58049800	14.50015200	98.91075000	#	C	graphene
8660	2547	1	0	16.32474800	16.67517500	98.91075000	#	C	graphene
8661	2547	1	0	15.06899800	18.85019700	98.91075000	#	C	graphene
8662	2547	1	0	13.81324800	21.02522000	98.91075000	#	C	graphene
8663	2547	1	0	12.55749800	23.20024300	98.91075000	#	C	graphene
8664	2547	1	0	11.30174800	25.37526600	98.91075000	#	C	graphene
8665	2547	1	0	10.04599800	27.55028800	98.91075000	#	C	graphene
8666	2547	1	0	8.79024800	29.72531100	98.91075000	#	C	graphene
8667	2547	1	0	7.53449800	31.90033400	98.91075000	#	C	graphene
8668	2547	1	0	6.27874800	34.07535600	98.91075000	#	C	graphene
8669	2547	1	0	27.62649700	1.45001600	98.91075000	#	C	graphene
8670	2547	1	0	26.37074700	3.62503900	98.91075000	#	C	graphene
8671	2547	1	0	25.11499800	5.80006100	98.91075000	#	C	graphene
8672	2547	1	0	23.85924800	7.97508400	98.91075000	#	C	graphene
8673	2547	1	0	22.60349800	10.15010700	98.91075000	#	C	graphene
8674	2547	1	0	21.34774800	12.32512900	98.91075000	#	C	graphene
8675	2547	1	0	20.09199800	14.50015200	98.91075000	#	C	graphene
8676	2547	1	0	18.83624800	16.67517500	98.91075000	#	C	graphene
8677	2547	1	0	17.58049800	18.85019700	98.91075000	#	C	graphene
8678	2547	1	0	16.32474800	21.02522000	98.91075000	#	C	graphene
8679	2547	1	0	15.06899800	23.20024300	98.91075000	#	C	graphene
8680	2547	1	0	13.81324800	25.37526600	98.91075000	#	C	graphene
8681	2547	1	0	12.55749800	27.55028800	98.91075000	#	C	graphene
8682	2547	1	0	11.30174800	29.72531100	98.91075000	#	C	graphene
8683	2547	1	0	10.04599800	31.90033400	98.91075000	#	C	graphene
8684	2547	1	0	8.79024800	34.07535600	98.91075000	#	C	graphene
8685	2547	1	0	30.13799700	1.45001600	98.91075000	#	C	graphene
8686	2547	1	0	28.88224700	3.62503900	98.91075000	#	C	graphene
8687	2547	1	0	27.62649700	5.80006100	98.91075000	#	C	graphene
8688	2547	1	0	26.37074700	7.97508400	98.91075000	#	C	graphene
8689	2547	1	0	25.11499800	10.15010700	98.91075000	#	C	graphene
8690	2547	1	0	23.85924800	12.32512900	98.91075000	#	C	graphene
8691	2547	1	0	22.60349800	14.50015200	98.91075000	#	C	graphene
8692	2547	1	0	21.34774800	16.67517500	98.91075000	#	C	graphene
8693	2547	1	0	20.09199800	18.85019700	98.91075000	#	C	graphene
8694	2547	1	0	18.83624800	21.02522000	98.91075000	#	C	graphene
8695	2547	1	0	17.58049800	23.20024300	98.91075000	#	C	graphene
8696	2547	1	0	16.32474800	25.37526600	98.91075000	#	C	graphene
8697	2547	1	0	15.06899800	27.55028800	98.91075000	#	C	graphene
8698	2547	1	0	13.81324800	29.72531100	98.91075000	#	C	graphene
8699	2547	1	0	12.55749800	31.90033400	98.91075000	#	C	graphene
8700	2547	1	0	11.30174800	34.07535600	98.91075000	#	C	graphene
8701	2547	1	0	31.39374700	3.62503900	98.91075000	#	C	graphene
8702	2547	1	0	30.13799700	5.80006100	98.91075000	#	C	graphene
8703	2547	1	0	28.88224700	7.97508400	98.91075000	#	C	graphene
8704	2547	1	0	27.62649700	10.15010700	98.91075000	#	C	graphene
8705	2547	1	0	26.37074700	12.32512900	98.91075000	#	C	graphene
8706	2547	1	0	25.11499800	14.50015200	98.91075000	#	C	graphene
8707	2547	1	0	23.85924800	16.67517500	98.91075000	#	C	graphene
8708	2547	1	0	22.60349800	18.85019700	98.91075000	#	C	graphene
8709	2547	1	0	21.34774800	21.02522000	98.91075000	#	C	graphene
8710	2547	1	0	20.09199800	23.20024300	98.91075000	#	C	graphene
8711	2547	1	0	18.83624800	25.37526600	98.91075000	#	C	graphene
8712	2547	1	0	17.58049800	27.55028800	98.91075000	#	C	graphene
8713	2547	1	0	16.32474800	29.72531100	98.91075000	#	C	graphene
8714	2547	1	0	15.06899800	31.90033400	98.91075000	#	C	graphene
8715	2547	1	0	13.81324800	34.07535600	98.91075000	#	C	graphene
8716	2547	1	0	31.39374700	7.97508400	98.91075000	#	C	graphene
8717	2547	1	0	30.13799700	10.15010700	98.91075000	#	C	graphene
8718	2547	1	0	28.88224700	12.32512900	98.91075000	#	C	graphene
8719	2547	1	0	27.62649700	14.50015200	98.91075000	#	C	graphene
8720	2547	1	0	26.37074700	16.67517500	98.91075000	#	C	graphene
8721	2547	1	0	25.11499800	18.85019700	98.91075000	#	C	graphene
8722	2547	1	0	23.85924800	21.02522000	98.91075000	#	C	graphene
8723	2547	1	0	22.60349800	23.20024300	98.91075000	#	C	graphene
8724	2547	1	0	21.34774800	25.37526600	98.91075000	#	C	graphene
8725	2547	1	0	20.09199800	27.55028800	98.91075000	#	C	graphene
8726	2547	1	0	18.83624800	29.72531100	98.91075000	#	C	graphene
8727	2547	1	0	17.58049800	31.90033400	98.91075000	#	C	graphene
8728	2547	1	0	16.32474800	34.07535600	98.91075000	#	C	graphene
8729	2547	1	0	31.39374700	12.32512900	98.91075000	#	C	graphene
8730	2547	1	0	30.13799700	14.50015200	98.91075000	#	C	graphene
8731	2547	1	0	28.88224700	16.67517500	98.91075000	#	C	graphene
8732	2547	1	0	27.62649700	18.85019700	98.91075000	#	C	graphene
8733	2547	1	0	26.37074700	21.02522000	98.91075000	#	C	graphene
8734	2547	1	0	25.11499800	23.20024300	98.91075000	#	C	graphene
8735	2547	1	0	23.85924800	25.37526600	98.91075000	#	C	graphene
8736	2547	1	0	22.60349800	27.55028800	98.91075000	#	C	graphene
8737	2547	1	0	21.34774800	29.72531100	98.91075000	#	C	graphene
8738	2547	1	0	20.09199800	31.90033400	98.91075000	#	C	graphene
8739	2547	1	0	18.83624800	34.07535600	98.91075000	#	C	graphene
8740	2547	1	0	31.39374700	16.67517500	98.91075000	#	C	graphene
8741	2547	1	0	30.13799700	18.85019700	98.91075000	#	C	graphene
8742	2547	1	0	28.88224700	21.02522000	98.91075000	#	C	graphene
8743	2547	1	0	27.62649700	23.20024300	98.91075000	#	C	graphene
8744	2547	1	0	26.37074700	25.37526600	98.91075000	#	C	graphene
8745	2547	1	0	25.11499800	27.55028800	98.91075000	#	C	graphene
8746	2547	1	0	23.85924800	29.72531100	98.91075000	#	C	graphene
8747	2547	1	0	22.60349800	31.90033400	98.91075000	#	C	graphene
8748	2547	1	0	21.34774800	34.07535600	98.91075000	#	C	graphene
8749	2547	1	0	31.39374700	21.02522000	98.91075000	#	C	graphene
8750	2547	1	0	30.13799700	23.20024300	98.91075000	#	C	graphene
8751	2547	1	0	28.88224700	25.37526600	98.91075000	#	C	graphene
8752	2547	1	0	27.62649700	27.55028800	98.91075000	#	C	graphene
8753	2547	1	0	26.37074700	29.72531100	98.91075000	#	C	graphene
8754	2547	1	0	25.11499800	31.90033400	98.91075000	#	C	graphene
8755	2547	1	0	23.85924800	34.07535600	98.91075000	#	C	graphene
8756	2547	1	0	31.39374700	25.37526600	98.91075000	#	C	graphene
8757	2547	1	0	30.13799700	27.55028800	98.91075000	#	C	graphene
8758	2547	1	0	28.88224700	29.72531100	98.91075000	#	C	graphene
8759	2547	1	0	27.62649700	31.90033400	98.91075000	#	C	graphene
8760	2547	1	0	26.37074700	34.07535600	98.91075000	#	C	graphene
8761	2547	1	0	31.39374700	29.72531100	98.91075000	#	C	graphene
8762	2547	1	0	30.13799700	31.90033400	98.91075000	#	C	graphene
8763	2547	1	0	28.88224700	34.07535600	98.91075000	#	C	graphene
8764	2547	1	0	31.39374700	34.07535600	98.91075000	#	C	graphene
8765	2547	1	0	1.25575100	0.72500700	98.91075000	#	C	graphene
8766	2547	1	0	0.00000100	2.90003000	98.91075000	#	C	graphene
8767	2547	1	0	3.76725100	0.72500700	98.91075000	#	C	graphene
8768	2547	1	0	2.51150100	2.90003000	98.91075000	#	C	graphene

Bonds

      1    1     417     418  # O-H
      2    1     417     419  # O-H
      3    1     420     421  # O-H
      4    1     420     422  # O-H
      5    1     423     424  # O-H
      6    1     423     425  # O-H
      7    1     426     427  # O-H
      8    1     426     428  # O-H
      9    1     429     430  # O-H
     10    1     429     431  # O-H
     11    1     432     433  # O-H
     12    1     432     434  # O-H
     13    1     435     436  # O-H
     14    1     435     437  # O-H
     15    1     438     439  # O-H
     16    1     438     440  # O-H
     17    1     441     442  # O-H
     18    1     441     443  # O-H
     19    1     444     445  # O-H
     20    1     444     446  # O-H
     21    1     447     448  # O-H
     22    1     447     449  # O-H
     23    1     450     451  # O-H
     24    1     450     452  # O-H
     25    1     453     454  # O-H
     26    1     453     455  # O-H
     27    1     456     457  # O-H
     28    1     456     458  # O-H
     29    1     459     460  # O-H
     30    1     459     461  # O-H
     31    1     462     463  # O-H
     32    1     462     464  # O-H
     33    1     465     466  # O-H
     34    1     465     467  # O-H
     35    1     468     469  # O-H
     36    1     468     470  # O-H
     37    1     471     472  # O-H
     38    1     471     473  # O-H
     39    1     474     475  # O-H
     40    1     474     476  # O-H
     41    1     477     478  # O-H
     42    1     477     479  # O-H
     43    1     480     481  # O-H
     44    1     480     482  # O-H
     45    1     483     484  # O-H
     46    1     483     485  # O-H
     47    1     486     487  # O-H
     48    1     486     488  # O-H
     49    1     489     490  # O-H
     50    1     489     491  # O-H
     51    1     492     493  # O-H
     52    1     492     494  # O-H
     53    1     495     496  # O-H
     54    1     495     497  # O-H
     55    1     498     499  # O-H
     56    1     498     500  # O-H
     57    1     501     502  # O-H
     58    1     501     503  # O-H
     59    1     504     505  # O-H
     60    1     504     506  # O-H
     61    1     507     508  # O-H
     62    1     507     509  # O-H
     63    1     510     511  # O-H
     64    1     510     512  # O-H
     65    1     513     514  # O-H
     66    1     513     515  # O-H
     67    1     516     517  # O-H
     68    1     516     518  # O-H
     69    1     519     520  # O-H
     70    1     519     521  # O-H
     71    1     522     523  # O-H
     72    1     522     524  # O-H
     73    1     525     526  # O-H
     74    1     525     527  # O-H
     75    1     528     529  # O-H
     76    1     528     530  # O-H
     77    1     531     532  # O-H
     78    1     531     533  # O-H
     79    1     534     535  # O-H
     80    1     534     536  # O-H
     81    1     537     538  # O-H
     82    1     537     539  # O-H
     83    1     540     541  # O-H
     84    1     540     542  # O-H
     85    1     543     544  # O-H
     86    1     543     545  # O-H
     87    1     546     547  # O-H
     88    1     546     548  # O-H
     89    1     549     550  # O-H
     90    1     549     551  # O-H
     91    1     552     553  # O-H
     92    1     552     554  # O-H
     93    1     555     556  # O-H
     94    1     555     557  # O-H
     95    1     558     559  # O-H
     96    1     558     560  # O-H
     97    1     561     562  # O-H
     98    1     561     563  # O-H
     99    1     564     565  # O-H
    100    1     564     566  # O-H
    101    1     567     568  # O-H
    102    1     567     569  # O-H
    103    1     570     571  # O-H
    104    1     570     572  # O-H
    105    1     573     574  # O-H
    106    1     573     575  # O-H
    107    1     576     577  # O-H
    108    1     576     578  # O-H
    109    1     579     580  # O-H
    110    1     579     581  # O-H
    111    1     582     583  # O-H
    112    1     582     584  # O-H
    113    1     585     586  # O-H
    114    1     585     587  # O-H
    115    1     588     589  # O-H
    116    1     588     590  # O-H
    117    1     591     592  # O-H
    118    1     591     593  # O-H
    119    1     594     595  # O-H
    120    1     594     596  # O-H
    121    1     597     598  # O-H
    122    1     597     599  # O-H
    123    1     600     601  # O-H
    124    1     600     602  # O-H
    125    1     603     604  # O-H
    126    1     603     605  # O-H
    127    1     606     607  # O-H
    128    1     606     608  # O-H
    129    1     609     610  # O-H
    130    1     609     611  # O-H
    131    1     612     613  # O-H
    132    1     612     614  # O-H
    133    1     615     616  # O-H
    134    1     615     617  # O-H
    135    1     618     619  # O-H
    136    1     618     620  # O-H
    137    1     621     622  # O-H
    138    1     621     623  # O-H
    139    1     624     625  # O-H
    140    1     624     626  # O-H
    141    1     627     628  # O-H
    142    1     627     629  # O-H
    143    1     630     631  # O-H
    144    1     630     632  # O-H
    145    1     633     634  # O-H
    146    1     633     635  # O-H
    147    1     636     637  # O-H
    148    1     636     638  # O-H
    149    1     639     640  # O-H
    150    1     639     641  # O-H
    151    1     642     643  # O-H
    152    1     642     644  # O-H
    153    1     645     646  # O-H
    154    1     645     647  # O-H
    155    1     648     649  # O-H
    156    1     648     650  # O-H
    157    1     651     652  # O-H
    158    1     651     653  # O-H
    159    1     654     655  # O-H
    160    1     654     656  # O-H
    161    1     657     658  # O-H
    162    1     657     659  # O-H
    163    1     660     661  # O-H
    164    1     660     662  # O-H
    165    1     663     664  # O-H
    166    1     663     665  # O-H
    167    1     666     667  # O-H
    168    1     666     668  # O-H
    169    1     669     670  # O-H
    170    1     669     671  # O-H
    171    1     672     673  # O-H
    172    1     672     674  # O-H
    173    1     675     676  # O-H
    174    1     675     677  # O-H
    175    1     678     679  # O-H
    176    1     678     680  # O-H
    177    1     681     682  # O-H
    178    1     681     683  # O-H
    179    1     684     685  # O-H
    180    1     684     686  # O-H
    181    1     687     688  # O-H
    182    1     687     689  # O-H
    183    1     690     691  # O-H
    184    1     690     692  # O-H
    185    1     693     694  # O-H
    186    1     693     695  # O-H
    187    1     696     697  # O-H
    188    1     696     698  # O-H
    189    1     699     700  # O-H
    190    1     699     701  # O-H
    191    1     702     703  # O-H
    192    1     702     704  # O-H
    193    1     705     706  # O-H
    194    1     705     707  # O-H
    195    1     708     709  # O-H
    196    1     708     710  # O-H
    197    1     711     712  # O-H
    198    1     711     713  # O-H
    199    1     714     715  # O-H
    200    1     714     716  # O-H
    201    1     717     718  # O-H
    202    1     717     719  # O-H
    203    1     720     721  # O-H
    204    1     720     722  # O-H
    205    1     723     724  # O-H
    206    1     723     725  # O-H
    207    1     726     727  # O-H
    208    1     726     728  # O-H
    209    1     729     730  # O-H
    210    1     729     731  # O-H
    211    1     732     733  # O-H
    212    1     732     734  # O-H
    213    1     735     736  # O-H
    214    1     735     737  # O-H
    215    1     738     739  # O-H
    216    1     738     740  # O-H
    217    1     741     742  # O-H
    218    1     741     743  # O-H
    219    1     744     745  # O-H
    220    1     744     746  # O-H
    221    1     747     748  # O-H
    222    1     747     749  # O-H
    223    1     750     751  # O-H
    224    1     750     752  # O-H
    225    1     753     754  # O-H
    226    1     753     755  # O-H
    227    1     756     757  # O-H
    228    1     756     758  # O-H
    229    1     759     760  # O-H
    230    1     759     761  # O-H
    231    1     762     763  # O-H
    232    1     762     764  # O-H
    233    1     765     766  # O-H
    234    1     765     767  # O-H
    235    1     768     769  # O-H
    236    1     768     770  # O-H
    237    1     771     772  # O-H
    238    1     771     773  # O-H
    239    1     774     775  # O-H
    240    1     774     776  # O-H
    241    1     777     778  # O-H
    242    1     777     779  # O-H
    243    1     780     781  # O-H
    244    1     780     782  # O-H
    245    1     783     784  # O-H
    246    1     783     785  # O-H
    247    1     786     787  # O-H
    248    1     786     788  # O-H
    249    1     789     790  # O-H
    250    1     789     791  # O-H
    251    1     792     793  # O-H
    252    1     792     794  # O-H
    253    1     795     796  # O-H
    254    1     795     797  # O-H
    255    1     798     799  # O-H
    256    1     798     800  # O-H
    257    1     801     802  # O-H
    258    1     801     803  # O-H
    259    1     804     805  # O-H
    260    1     804     806  # O-H
    261    1     807     808  # O-H
    262    1     807     809  # O-H
    263    1     810     811  # O-H
    264    1     810     812  # O-H
    265    1     813     814  # O-H
    266    1     813     815  # O-H
    267    1     816     817  # O-H
    268    1     816     818  # O-H
    269    1     819     820  # O-H
    270    1     819     821  # O-H
    271    1     822     823  # O-H
    272    1     822     824  # O-H
    273    1     825     826  # O-H
    274    1     825     827  # O-H
    275    1     828     829  # O-H
    276    1     828     830  # O-H
    277    1     831     832  # O-H
    278    1     831     833  # O-H
    279    1     834     835  # O-H
    280    1     834     836  # O-H
    281    1     837     838  # O-H
    282    1     837     839  # O-H
    283    1     840     841  # O-H
    284    1     840     842  # O-H
    285    1     843     844  # O-H
    286    1     843     845  # O-H
    287    1     846     847  # O-H
    288    1     846     848  # O-H
    289    1     849     850  # O-H
    290    1     849     851  # O-H
    291    1     852     853  # O-H
    292    1     852     854  # O-H
    293    1     855     856  # O-H
    294    1     855     857  # O-H
    295    1     858     859  # O-H
    296    1     858     860  # O-H
    297    1     861     862  # O-H
    298    1     861     863  # O-H
    299    1     864     865  # O-H
    300    1     864     866  # O-H
    301    1     867     868  # O-H
    302    1     867     869  # O-H
    303    1     870     871  # O-H
    304    1     870     872  # O-H
    305    1     873     874  # O-H
    306    1     873     875  # O-H
    307    1     876     877  # O-H
    308    1     876     878  # O-H
    309    1     879     880  # O-H
    310    1     879     881  # O-H
    311    1     882     883  # O-H
    312    1     882     884  # O-H
    313    1     885     886  # O-H
    314    1     885     887  # O-H
    315    1     888     889  # O-H
    316    1     888     890  # O-H
    317    1     891     892  # O-H
    318    1     891     893  # O-H
    319    1     894     895  # O-H
    320    1     894     896  # O-H
    321    1     897     898  # O-H
    322    1     897     899  # O-H
    323    1     900     901  # O-H
    324    1     900     902  # O-H
    325    1     903     904  # O-H
    326    1     903     905  # O-H
    327    1     906     907  # O-H
    328    1     906     908  # O-H
    329    1     909     910  # O-H
    330    1     909     911  # O-H
    331    1     912     913  # O-H
    332    1     912     914  # O-H
    333    1     915     916  # O-H
    334    1     915     917  # O-H
    335    1     918     919  # O-H
    336    1     918     920  # O-H
    337    1     921     922  # O-H
    338    1     921     923  # O-H
    339    1     924     925  # O-H
    340    1     924     926  # O-H
    341    1     927     928  # O-H
    342    1     927     929  # O-H
    343    1     930     931  # O-H
    344    1     930     932  # O-H
    345    1     933     934  # O-H
    346    1     933     935  # O-H
    347    1     936     937  # O-H
    348    1     936     938  # O-H
    349    1     939     940  # O-H
    350    1     939     941  # O-H
    351    1     942     943  # O-H
    352    1     942     944  # O-H
    353    1     945     946  # O-H
    354    1     945     947  # O-H
    355    1     948     949  # O-H
    356    1     948     950  # O-H
    357    1     951     952  # O-H
    358    1     951     953  # O-H
    359    1     954     955  # O-H
    360    1     954     956  # O-H
    361    1     957     958  # O-H
    362    1     957     959  # O-H
    363    1     960     961  # O-H
    364    1     960     962  # O-H
    365    1     963     964  # O-H
    366    1     963     965  # O-H
    367    1     966     967  # O-H
    368    1     966     968  # O-H
    369    1     969     970  # O-H
    370    1     969     971  # O-H
    371    1     972     973  # O-H
    372    1     972     974  # O-H
    373    1     975     976  # O-H
    374    1     975     977  # O-H
    375    1     978     979  # O-H
    376    1     978     980  # O-H
    377    1     981     982  # O-H
    378    1     981     983  # O-H
    379    1     984     985  # O-H
    380    1     984     986  # O-H
    381    1     987     988  # O-H
    382    1     987     989  # O-H
    383    1     990     991  # O-H
    384    1     990     992  # O-H
    385    1     993     994  # O-H
    386    1     993     995  # O-H
    387    1     996     997  # O-H
    388    1     996     998  # O-H
    389    1     999    1000  # O-H
    390    1     999    1001  # O-H
    391    1    1002    1003  # O-H
    392    1    1002    1004  # O-H
    393    1    1005    1006  # O-H
    394    1    1005    1007  # O-H
    395    1    1008    1009  # O-H
    396    1    1008    1010  # O-H
    397    1    1011    1012  # O-H
    398    1    1011    1013  # O-H
    399    1    1014    1015  # O-H
    400    1    1014    1016  # O-H
    401    1    1017    1018  # O-H
    402    1    1017    1019  # O-H
    403    1    1020    1021  # O-H
    404    1    1020    1022  # O-H
    405    1    1023    1024  # O-H
    406    1    1023    1025  # O-H
    407    1    1026    1027  # O-H
    408    1    1026    1028  # O-H
    409    1    1029    1030  # O-H
    410    1    1029    1031  # O-H
    411    1    1032    1033  # O-H
    412    1    1032    1034  # O-H
    413    1    1035    1036  # O-H
    414    1    1035    1037  # O-H
    415    1    1038    1039  # O-H
    416    1    1038    1040  # O-H
    417    1    1041    1042  # O-H
    418    1    1041    1043  # O-H
    419    1    1044    1045  # O-H
    420    1    1044    1046  # O-H
    421    1    1047    1048  # O-H
    422    1    1047    1049  # O-H
    423    1    1050    1051  # O-H
    424    1    1050    1052  # O-H
    425    1    1053    1054  # O-H
    426    1    1053    1055  # O-H
    427    1    1056    1057  # O-H
    428    1    1056    1058  # O-H
    429    1    1059    1060  # O-H
    430    1    1059    1061  # O-H
    431    1    1062    1063  # O-H
    432    1    1062    1064  # O-H
    433    1    1065    1066  # O-H
    434    1    1065    1067  # O-H
    435    1    1068    1069  # O-H
    436    1    1068    1070  # O-H
    437    1    1071    1072  # O-H
    438    1    1071    1073  # O-H
    439    1    1074    1075  # O-H
    440    1    1074    1076  # O-H
    441    1    1077    1078  # O-H
    442    1    1077    1079  # O-H
    443    1    1080    1081  # O-H
    444    1    1080    1082  # O-H
    445    1    1083    1084  # O-H
    446    1    1083    1085  # O-H
    447    1    1086    1087  # O-H
    448    1    1086    1088  # O-H
    449    1    1089    1090  # O-H
    450    1    1089    1091  # O-H
    451    1    1092    1093  # O-H
    452    1    1092    1094  # O-H
    453    1    1095    1096  # O-H
    454    1    1095    1097  # O-H
    455    1    1098    1099  # O-H
    456    1    1098    1100  # O-H
    457    1    1101    1102  # O-H
    458    1    1101    1103  # O-H
    459    1    1104    1105  # O-H
    460    1    1104    1106  # O-H
    461    1    1107    1108  # O-H
    462    1    1107    1109  # O-H
    463    1    1110    1111  # O-H
    464    1    1110    1112  # O-H
    465    1    1113    1114  # O-H
    466    1    1113    1115  # O-H
    467    1    1116    1117  # O-H
    468    1    1116    1118  # O-H
    469    1    1119    1120  # O-H
    470    1    1119    1121  # O-H
    471    1    1122    1123  # O-H
    472    1    1122    1124  # O-H
    473    1    1125    1126  # O-H
    474    1    1125    1127  # O-H
    475    1    1128    1129  # O-H
    476    1    1128    1130  # O-H
    477    1    1131    1132  # O-H
    478    1    1131    1133  # O-H
    479    1    1134    1135  # O-H
    480    1    1134    1136  # O-H
    481    1    1137    1138  # O-H
    482    1    1137    1139  # O-H
    483    1    1140    1141  # O-H
    484    1    1140    1142  # O-H
    485    1    1143    1144  # O-H
    486    1    1143    1145  # O-H
    487    1    1146    1147  # O-H
    488    1    1146    1148  # O-H
    489    1    1149    1150  # O-H
    490    1    1149    1151  # O-H
    491    1    1152    1153  # O-H
    492    1    1152    1154  # O-H
    493    1    1155    1156  # O-H
    494    1    1155    1157  # O-H
    495    1    1158    1159  # O-H
    496    1    1158    1160  # O-H
    497    1    1161    1162  # O-H
    498    1    1161    1163  # O-H
    499    1    1164    1165  # O-H
    500    1    1164    1166  # O-H
    501    1    1167    1168  # O-H
    502    1    1167    1169  # O-H
    503    1    1170    1171  # O-H
    504    1    1170    1172  # O-H
    505    1    1173    1174  # O-H
    506    1    1173    1175  # O-H
    507    1    1176    1177  # O-H
    508    1    1176    1178  # O-H
    509    1    1179    1180  # O-H
    510    1    1179    1181  # O-H
    511    1    1182    1183  # O-H
    512    1    1182    1184  # O-H
    513    1    1185    1186  # O-H
    514    1    1185    1187  # O-H
    515    1    1188    1189  # O-H
    516    1    1188    1190  # O-H
    517    1    1191    1192  # O-H
    518    1    1191    1193  # O-H
    519    1    1194    1195  # O-H
    520    1    1194    1196  # O-H
    521    1    1197    1198  # O-H
    522    1    1197    1199  # O-H
    523    1    1200    1201  # O-H
    524    1    1200    1202  # O-H
    525    1    1203    1204  # O-H
    526    1    1203    1205  # O-H
    527    1    1206    1207  # O-H
    528    1    1206    1208  # O-H
    529    1    1209    1210  # O-H
    530    1    1209    1211  # O-H
    531    1    1212    1213  # O-H
    532    1    1212    1214  # O-H
    533    1    1215    1216  # O-H
    534    1    1215    1217  # O-H
    535    1    1218    1219  # O-H
    536    1    1218    1220  # O-H
    537    1    1221    1222  # O-H
    538    1    1221    1223  # O-H
    539    1    1224    1225  # O-H
    540    1    1224    1226  # O-H
    541    1    1227    1228  # O-H
    542    1    1227    1229  # O-H
    543    1    1230    1231  # O-H
    544    1    1230    1232  # O-H
    545    1    1233    1234  # O-H
    546    1    1233    1235  # O-H
    547    1    1236    1237  # O-H
    548    1    1236    1238  # O-H
    549    1    1239    1240  # O-H
    550    1    1239    1241  # O-H
    551    1    1242    1243  # O-H
    552    1    1242    1244  # O-H
    553    1    1245    1246  # O-H
    554    1    1245    1247  # O-H
    555    1    1248    1249  # O-H
    556    1    1248    1250  # O-H
    557    1    1251    1252  # O-H
    558    1    1251    1253  # O-H
    559    1    1254    1255  # O-H
    560    1    1254    1256  # O-H
    561    1    1257    1258  # O-H
    562    1    1257    1259  # O-H
    563    1    1260    1261  # O-H
    564    1    1260    1262  # O-H
    565    1    1263    1264  # O-H
    566    1    1263    1265  # O-H
    567    1    1266    1267  # O-H
    568    1    1266    1268  # O-H
    569    1    1269    1270  # O-H
    570    1    1269    1271  # O-H
    571    1    1272    1273  # O-H
    572    1    1272    1274  # O-H
    573    1    1275    1276  # O-H
    574    1    1275    1277  # O-H
    575    1    1278    1279  # O-H
    576    1    1278    1280  # O-H
    577    1    1281    1282  # O-H
    578    1    1281    1283  # O-H
    579    1    1284    1285  # O-H
    580    1    1284    1286  # O-H
    581    1    1287    1288  # O-H
    582    1    1287    1289  # O-H
    583    1    1290    1291  # O-H
    584    1    1290    1292  # O-H
    585    1    1293    1294  # O-H
    586    1    1293    1295  # O-H
    587    1    1296    1297  # O-H
    588    1    1296    1298  # O-H
    589    1    1299    1300  # O-H
    590    1    1299    1301  # O-H
    591    1    1302    1303  # O-H
    592    1    1302    1304  # O-H
    593    1    1305    1306  # O-H
    594    1    1305    1307  # O-H
    595    1    1308    1309  # O-H
    596    1    1308    1310  # O-H
    597    1    1311    1312  # O-H
    598    1    1311    1313  # O-H
    599    1    1314    1315  # O-H
    600    1    1314    1316  # O-H
    601    1    1317    1318  # O-H
    602    1    1317    1319  # O-H
    603    1    1320    1321  # O-H
    604    1    1320    1322  # O-H
    605    1    1323    1324  # O-H
    606    1    1323    1325  # O-H
    607    1    1326    1327  # O-H
    608    1    1326    1328  # O-H
    609    1    1329    1330  # O-H
    610    1    1329    1331  # O-H
    611    1    1332    1333  # O-H
    612    1    1332    1334  # O-H
    613    1    1335    1336  # O-H
    614    1    1335    1337  # O-H
    615    1    1338    1339  # O-H
    616    1    1338    1340  # O-H
    617    1    1341    1342  # O-H
    618    1    1341    1343  # O-H
    619    1    1344    1345  # O-H
    620    1    1344    1346  # O-H
    621    1    1347    1348  # O-H
    622    1    1347    1349  # O-H
    623    1    1350    1351  # O-H
    624    1    1350    1352  # O-H
    625    1    1353    1354  # O-H
    626    1    1353    1355  # O-H
    627    1    1356    1357  # O-H
    628    1    1356    1358  # O-H
    629    1    1359    1360  # O-H
    630    1    1359    1361  # O-H
    631    1    1362    1363  # O-H
    632    1    1362    1364  # O-H
    633    1    1365    1366  # O-H
    634    1    1365    1367  # O-H
    635    1    1368    1369  # O-H
    636    1    1368    1370  # O-H
    637    1    1371    1372  # O-H
    638    1    1371    1373  # O-H
    639    1    1374    1375  # O-H
    640    1    1374    1376  # O-H
    641    1    1377    1378  # O-H
    642    1    1377    1379  # O-H
    643    1    1380    1381  # O-H
    644    1    1380    1382  # O-H
    645    1    1383    1384  # O-H
    646    1    1383    1385  # O-H
    647    1    1386    1387  # O-H
    648    1    1386    1388  # O-H
    649    1    1389    1390  # O-H
    650    1    1389    1391  # O-H
    651    1    1392    1393  # O-H
    652    1    1392    1394  # O-H
    653    1    1395    1396  # O-H
    654    1    1395    1397  # O-H
    655    1    1398    1399  # O-H
    656    1    1398    1400  # O-H
    657    1    1401    1402  # O-H
    658    1    1401    1403  # O-H
    659    1    1404    1405  # O-H
    660    1    1404    1406  # O-H
    661    1    1407    1408  # O-H
    662    1    1407    1409  # O-H
    663    1    1410    1411  # O-H
    664    1    1410    1412  # O-H
    665    1    1413    1414  # O-H
    666    1    1413    1415  # O-H
    667    1    1416    1417  # O-H
    668    1    1416    1418  # O-H
    669    1    1419    1420  # O-H
    670    1    1419    1421  # O-H
    671    1    1422    1423  # O-H
    672    1    1422    1424  # O-H
    673    1    1425    1426  # O-H
    674    1    1425    1427  # O-H
    675    1    1428    1429  # O-H
    676    1    1428    1430  # O-H
    677    1    1431    1432  # O-H
    678    1    1431    1433  # O-H
    679    1    1434    1435  # O-H
    680    1    1434    1436  # O-H
    681    1    1437    1438  # O-H
    682    1    1437    1439  # O-H
    683    1    1440    1441  # O-H
    684    1    1440    1442  # O-H
    685    1    1443    1444  # O-H
    686    1    1443    1445  # O-H
    687    1    1446    1447  # O-H
    688    1    1446    1448  # O-H
    689    1    1449    1450  # O-H
    690    1    1449    1451  # O-H
    691    1    1452    1453  # O-H
    692    1    1452    1454  # O-H
    693    1    1455    1456  # O-H
    694    1    1455    1457  # O-H
    695    1    1458    1459  # O-H
    696    1    1458    1460  # O-H
    697    1    1461    1462  # O-H
    698    1    1461    1463  # O-H
    699    1    1464    1465  # O-H
    700    1    1464    1466  # O-H
    701    1    1467    1468  # O-H
    702    1    1467    1469  # O-H
    703    1    1470    1471  # O-H
    704    1    1470    1472  # O-H
    705    1    1473    1474  # O-H
    706    1    1473    1475  # O-H
    707    1    1476    1477  # O-H
    708    1    1476    1478  # O-H
    709    1    1479    1480  # O-H
    710    1    1479    1481  # O-H
    711    1    1482    1483  # O-H
    712    1    1482    1484  # O-H
    713    1    1485    1486  # O-H
    714    1    1485    1487  # O-H
    715    1    1488    1489  # O-H
    716    1    1488    1490  # O-H
    717    1    1491    1492  # O-H
    718    1    1491    1493  # O-H
    719    1    1494    1495  # O-H
    720    1    1494    1496  # O-H
    721    1    1497    1498  # O-H
    722    1    1497    1499  # O-H
    723    1    1500    1501  # O-H
    724    1    1500    1502  # O-H
    725    1    1503    1504  # O-H
    726    1    1503    1505  # O-H
    727    1    1506    1507  # O-H
    728    1    1506    1508  # O-H
    729    1    1509    1510  # O-H
    730    1    1509    1511  # O-H
    731    1    1512    1513  # O-H
    732    1    1512    1514  # O-H
    733    1    1515    1516  # O-H
    734    1    1515    1517  # O-H
    735    1    1518    1519  # O-H
    736    1    1518    1520  # O-H
    737    1    1521    1522  # O-H
    738    1    1521    1523  # O-H
    739    1    1524    1525  # O-H
    740    1    1524    1526  # O-H
    741    1    1527    1528  # O-H
    742    1    1527    1529  # O-H
    743    1    1530    1531  # O-H
    744    1    1530    1532  # O-H
    745    1    1533    1534  # O-H
    746    1    1533    1535  # O-H
    747    1    1536    1537  # O-H
    748    1    1536    1538  # O-H
    749    1    1539    1540  # O-H
    750    1    1539    1541  # O-H
    751    1    1542    1543  # O-H
    752    1    1542    1544  # O-H
    753    1    1545    1546  # O-H
    754    1    1545    1547  # O-H
    755    1    1548    1549  # O-H
    756    1    1548    1550  # O-H
    757    1    1551    1552  # O-H
    758    1    1551    1553  # O-H
    759    1    1554    1555  # O-H
    760    1    1554    1556  # O-H
    761    1    1557    1558  # O-H
    762    1    1557    1559  # O-H
    763    1    1560    1561  # O-H
    764    1    1560    1562  # O-H
    765    1    1563    1564  # O-H
    766    1    1563    1565  # O-H
    767    1    1566    1567  # O-H
    768    1    1566    1568  # O-H
    769    1    1569    1570  # O-H
    770    1    1569    1571  # O-H
    771    1    1572    1573  # O-H
    772    1    1572    1574  # O-H
    773    1    1575    1576  # O-H
    774    1    1575    1577  # O-H
    775    1    1578    1579  # O-H
    776    1    1578    1580  # O-H
    777    1    1581    1582  # O-H
    778    1    1581    1583  # O-H
    779    1    1584    1585  # O-H
    780    1    1584    1586  # O-H
    781    1    1587    1588  # O-H
    782    1    1587    1589  # O-H
    783    1    1590    1591  # O-H
    784    1    1590    1592  # O-H
    785    1    1593    1594  # O-H
    786    1    1593    1595  # O-H
    787    1    1596    1597  # O-H
    788    1    1596    1598  # O-H
    789    1    1599    1600  # O-H
    790    1    1599    1601  # O-H
    791    1    1602    1603  # O-H
    792    1    1602    1604  # O-H
    793    1    1605    1606  # O-H
    794    1    1605    1607  # O-H
    795    1    1608    1609  # O-H
    796    1    1608    1610  # O-H
    797    1    1611    1612  # O-H
    798    1    1611    1613  # O-H
    799    1    1614    1615  # O-H
    800    1    1614    1616  # O-H
    801    1    1617    1618  # O-H
    802    1    1617    1619  # O-H
    803    1    1620    1621  # O-H
    804    1    1620    1622  # O-H
    805    1    1623    1624  # O-H
    806    1    1623    1625  # O-H
    807    1    1626    1627  # O-H
    808    1    1626    1628  # O-H
    809    1    1629    1630  # O-H
    810    1    1629    1631  # O-H
    811    1    1632    1633  # O-H
    812    1    1632    1634  # O-H
    813    1    1635    1636  # O-H
    814    1    1635    1637  # O-H
    815    1    1638    1639  # O-H
    816    1    1638    1640  # O-H
    817    1    1641    1642  # O-H
    818    1    1641    1643  # O-H
    819    1    1644    1645  # O-H
    820    1    1644    1646  # O-H
    821    1    1647    1648  # O-H
    822    1    1647    1649  # O-H
    823    1    1650    1651  # O-H
    824    1    1650    1652  # O-H
    825    1    1653    1654  # O-H
    826    1    1653    1655  # O-H
    827    1    1656    1657  # O-H
    828    1    1656    1658  # O-H
    829    1    1659    1660  # O-H
    830    1    1659    1661  # O-H
    831    1    1662    1663  # O-H
    832    1    1662    1664  # O-H
    833    1    1665    1666  # O-H
    834    1    1665    1667  # O-H
    835    1    1668    1669  # O-H
    836    1    1668    1670  # O-H
    837    1    1671    1672  # O-H
    838    1    1671    1673  # O-H
    839    1    1674    1675  # O-H
    840    1    1674    1676  # O-H
    841    1    1677    1678  # O-H
    842    1    1677    1679  # O-H
    843    1    1680    1681  # O-H
    844    1    1680    1682  # O-H
    845    1    1683    1684  # O-H
    846    1    1683    1685  # O-H
    847    1    1686    1687  # O-H
    848    1    1686    1688  # O-H
    849    1    1689    1690  # O-H
    850    1    1689    1691  # O-H
    851    1    1692    1693  # O-H
    852    1    1692    1694  # O-H
    853    1    1695    1696  # O-H
    854    1    1695    1697  # O-H
    855    1    1698    1699  # O-H
    856    1    1698    1700  # O-H
    857    1    1701    1702  # O-H
    858    1    1701    1703  # O-H
    859    1    1704    1705  # O-H
    860    1    1704    1706  # O-H
    861    1    1707    1708  # O-H
    862    1    1707    1709  # O-H
    863    1    1710    1711  # O-H
    864    1    1710    1712  # O-H
    865    1    1713    1714  # O-H
    866    1    1713    1715  # O-H
    867    1    1716    1717  # O-H
    868    1    1716    1718  # O-H
    869    1    1719    1720  # O-H
    870    1    1719    1721  # O-H
    871    1    1722    1723  # O-H
    872    1    1722    1724  # O-H
    873    1    1725    1726  # O-H
    874    1    1725    1727  # O-H
    875    1    1728    1729  # O-H
    876    1    1728    1730  # O-H
    877    1    1731    1732  # O-H
    878    1    1731    1733  # O-H
    879    1    1734    1735  # O-H
    880    1    1734    1736  # O-H
    881    1    1737    1738  # O-H
    882    1    1737    1739  # O-H
    883    1    1740    1741  # O-H
    884    1    1740    1742  # O-H
    885    1    1743    1744  # O-H
    886    1    1743    1745  # O-H
    887    1    1746    1747  # O-H
    888    1    1746    1748  # O-H
    889    1    1749    1750  # O-H
    890    1    1749    1751  # O-H
    891    1    1752    1753  # O-H
    892    1    1752    1754  # O-H
    893    1    1755    1756  # O-H
    894    1    1755    1757  # O-H
    895    1    1758    1759  # O-H
    896    1    1758    1760  # O-H
    897    1    1761    1762  # O-H
    898    1    1761    1763  # O-H
    899    1    1764    1765  # O-H
    900    1    1764    1766  # O-H
    901    1    1767    1768  # O-H
    902    1    1767    1769  # O-H
    903    1    1770    1771  # O-H
    904    1    1770    1772  # O-H
    905    1    1773    1774  # O-H
    906    1    1773    1775  # O-H
    907    1    1776    1777  # O-H
    908    1    1776    1778  # O-H
    909    1    1779    1780  # O-H
    910    1    1779    1781  # O-H
    911    1    1782    1783  # O-H
    912    1    1782    1784  # O-H
    913    1    1785    1786  # O-H
    914    1    1785    1787  # O-H
    915    1    1788    1789  # O-H
    916    1    1788    1790  # O-H
    917    1    1791    1792  # O-H
    918    1    1791    1793  # O-H
    919    1    1794    1795  # O-H
    920    1    1794    1796  # O-H
    921    1    1797    1798  # O-H
    922    1    1797    1799  # O-H
    923    1    1800    1801  # O-H
    924    1    1800    1802  # O-H
    925    1    1803    1804  # O-H
    926    1    1803    1805  # O-H
    927    1    1806    1807  # O-H
    928    1    1806    1808  # O-H
    929    1    1809    1810  # O-H
    930    1    1809    1811  # O-H
    931    1    1812    1813  # O-H
    932    1    1812    1814  # O-H
    933    1    1815    1816  # O-H
    934    1    1815    1817  # O-H
    935    1    1818    1819  # O-H
    936    1    1818    1820  # O-H
    937    1    1821    1822  # O-H
    938    1    1821    1823  # O-H
    939    1    1824    1825  # O-H
    940    1    1824    1826  # O-H
    941    1    1827    1828  # O-H
    942    1    1827    1829  # O-H
    943    1    1830    1831  # O-H
    944    1    1830    1832  # O-H
    945    1    1833    1834  # O-H
    946    1    1833    1835  # O-H
    947    1    1836    1837  # O-H
    948    1    1836    1838  # O-H
    949    1    1839    1840  # O-H
    950    1    1839    1841  # O-H
    951    1    1842    1843  # O-H
    952    1    1842    1844  # O-H
    953    1    1845    1846  # O-H
    954    1    1845    1847  # O-H
    955    1    1848    1849  # O-H
    956    1    1848    1850  # O-H
    957    1    1851    1852  # O-H
    958    1    1851    1853  # O-H
    959    1    1854    1855  # O-H
    960    1    1854    1856  # O-H
    961    1    1857    1858  # O-H
    962    1    1857    1859  # O-H
    963    1    1860    1861  # O-H
    964    1    1860    1862  # O-H
    965    1    1863    1864  # O-H
    966    1    1863    1865  # O-H
    967    1    1866    1867  # O-H
    968    1    1866    1868  # O-H
    969    1    1869    1870  # O-H
    970    1    1869    1871  # O-H
    971    1    1872    1873  # O-H
    972    1    1872    1874  # O-H
    973    1    1875    1876  # O-H
    974    1    1875    1877  # O-H
    975    1    1878    1879  # O-H
    976    1    1878    1880  # O-H
    977    1    1881    1882  # O-H
    978    1    1881    1883  # O-H
    979    1    1884    1885  # O-H
    980    1    1884    1886  # O-H
    981    1    1887    1888  # O-H
    982    1    1887    1889  # O-H
    983    1    1890    1891  # O-H
    984    1    1890    1892  # O-H
    985    1    1893    1894  # O-H
    986    1    1893    1895  # O-H
    987    1    1896    1897  # O-H
    988    1    1896    1898  # O-H
    989    1    1899    1900  # O-H
    990    1    1899    1901  # O-H
    991    1    1902    1903  # O-H
    992    1    1902    1904  # O-H
    993    1    1905    1906  # O-H
    994    1    1905    1907  # O-H
    995    1    1908    1909  # O-H
    996    1    1908    1910  # O-H
    997    1    1911    1912  # O-H
    998    1    1911    1913  # O-H
    999    1    1914    1915  # O-H
   1000    1    1914    1916  # O-H
   1001    1    1917    1918  # O-H
   1002    1    1917    1919  # O-H
   1003    1    1920    1921  # O-H
   1004    1    1920    1922  # O-H
   1005    1    1923    1924  # O-H
   1006    1    1923    1925  # O-H
   1007    1    1926    1927  # O-H
   1008    1    1926    1928  # O-H
   1009    1    1929    1930  # O-H
   1010    1    1929    1931  # O-H
   1011    1    1932    1933  # O-H
   1012    1    1932    1934  # O-H
   1013    1    1935    1936  # O-H
   1014    1    1935    1937  # O-H
   1015    1    1938    1939  # O-H
   1016    1    1938    1940  # O-H
   1017    1    1941    1942  # O-H
   1018    1    1941    1943  # O-H
   1019    1    1944    1945  # O-H
   1020    1    1944    1946  # O-H
   1021    1    1947    1948  # O-H
   1022    1    1947    1949  # O-H
   1023    1    1950    1951  # O-H
   1024    1    1950    1952  # O-H
   1025    1    1953    1954  # O-H
   1026    1    1953    1955  # O-H
   1027    1    1956    1957  # O-H
   1028    1    1956    1958  # O-H
   1029    1    1959    1960  # O-H
   1030    1    1959    1961  # O-H
   1031    1    1962    1963  # O-H
   1032    1    1962    1964  # O-H
   1033    1    1965    1966  # O-H
   1034    1    1965    1967  # O-H
   1035    1    1968    1969  # O-H
   1036    1    1968    1970  # O-H
   1037    1    1971    1972  # O-H
   1038    1    1971    1973  # O-H
   1039    1    1974    1975  # O-H
   1040    1    1974    1976  # O-H
   1041    1    1977    1978  # O-H
   1042    1    1977    1979  # O-H
   1043    1    1980    1981  # O-H
   1044    1    1980    1982  # O-H
   1045    1    1983    1984  # O-H
   1046    1    1983    1985  # O-H
   1047    1    1986    1987  # O-H
   1048    1    1986    1988  # O-H
   1049    1    1989    1990  # O-H
   1050    1    1989    1991  # O-H
   1051    1    1992    1993  # O-H
   1052    1    1992    1994  # O-H
   1053    1    1995    1996  # O-H
   1054    1    1995    1997  # O-H
   1055    1    1998    1999  # O-H
   1056    1    1998    2000  # O-H
   1057    1    2001    2002  # O-H
   1058    1    2001    2003  # O-H
   1059    1    2004    2005  # O-H
   1060    1    2004    2006  # O-H
   1061    1    2007    2008  # O-H
   1062    1    2007    2009  # O-H
   1063    1    2010    2011  # O-H
   1064    1    2010    2012  # O-H
   1065    1    2013    2014  # O-H
   1066    1    2013    2015  # O-H
   1067    1    2016    2017  # O-H
   1068    1    2016    2018  # O-H
   1069    1    2019    2020  # O-H
   1070    1    2019    2021  # O-H
   1071    1    2022    2023  # O-H
   1072    1    2022    2024  # O-H
   1073    1    2025    2026  # O-H
   1074    1    2025    2027  # O-H
   1075    1    2028    2029  # O-H
   1076    1    2028    2030  # O-H
   1077    1    2031    2032  # O-H
   1078    1    2031    2033  # O-H
   1079    1    2034    2035  # O-H
   1080    1    2034    2036  # O-H
   1081    1    2037    2038  # O-H
   1082    1    2037    2039  # O-H
   1083    1    2040    2041  # O-H
   1084    1    2040    2042  # O-H
   1085    1    2043    2044  # O-H
   1086    1    2043    2045  # O-H
   1087    1    2046    2047  # O-H
   1088    1    2046    2048  # O-H
   1089    1    2049    2050  # O-H
   1090    1    2049    2051  # O-H
   1091    1    2052    2053  # O-H
   1092    1    2052    2054  # O-H
   1093    1    2055    2056  # O-H
   1094    1    2055    2057  # O-H
   1095    1    2058    2059  # O-H
   1096    1    2058    2060  # O-H
   1097    1    2061    2062  # O-H
   1098    1    2061    2063  # O-H
   1099    1    2064    2065  # O-H
   1100    1    2064    2066  # O-H
   1101    1    2067    2068  # O-H
   1102    1    2067    2069  # O-H
   1103    1    2070    2071  # O-H
   1104    1    2070    2072  # O-H
   1105    1    2073    2074  # O-H
   1106    1    2073    2075  # O-H
   1107    1    2076    2077  # O-H
   1108    1    2076    2078  # O-H
   1109    1    2079    2080  # O-H
   1110    1    2079    2081  # O-H
   1111    1    2082    2083  # O-H
   1112    1    2082    2084  # O-H
   1113    1    2085    2086  # O-H
   1114    1    2085    2087  # O-H
   1115    1    2088    2089  # O-H
   1116    1    2088    2090  # O-H
   1117    1    2091    2092  # O-H
   1118    1    2091    2093  # O-H
   1119    1    2094    2095  # O-H
   1120    1    2094    2096  # O-H
   1121    1    2097    2098  # O-H
   1122    1    2097    2099  # O-H
   1123    1    2100    2101  # O-H
   1124    1    2100    2102  # O-H
   1125    1    2103    2104  # O-H
   1126    1    2103    2105  # O-H
   1127    1    2106    2107  # O-H
   1128    1    2106    2108  # O-H
   1129    1    2109    2110  # O-H
   1130    1    2109    2111  # O-H
   1131    1    2112    2113  # O-H
   1132    1    2112    2114  # O-H
   1133    1    2115    2116  # O-H
   1134    1    2115    2117  # O-H
   1135    1    2118    2119  # O-H
   1136    1    2118    2120  # O-H
   1137    1    2121    2122  # O-H
   1138    1    2121    2123  # O-H
   1139    1    2124    2125  # O-H
   1140    1    2124    2126  # O-H
   1141    1    2127    2128  # O-H
   1142    1    2127    2129  # O-H
   1143    1    2130    2131  # O-H
   1144    1    2130    2132  # O-H
   1145    1    2133    2134  # O-H
   1146    1    2133    2135  # O-H
   1147    1    2136    2137  # O-H
   1148    1    2136    2138  # O-H
   1149    1    2139    2140  # O-H
   1150    1    2139    2141  # O-H
   1151    1    2142    2143  # O-H
   1152    1    2142    2144  # O-H
   1153    1    2145    2146  # O-H
   1154    1    2145    2147  # O-H
   1155    1    2148    2149  # O-H
   1156    1    2148    2150  # O-H
   1157    1    2151    2152  # O-H
   1158    1    2151    2153  # O-H
   1159    1    2154    2155  # O-H
   1160    1    2154    2156  # O-H
   1161    1    2157    2158  # O-H
   1162    1    2157    2159  # O-H
   1163    1    2160    2161  # O-H
   1164    1    2160    2162  # O-H
   1165    1    2163    2164  # O-H
   1166    1    2163    2165  # O-H
   1167    1    2166    2167  # O-H
   1168    1    2166    2168  # O-H
   1169    1    2169    2170  # O-H
   1170    1    2169    2171  # O-H
   1171    1    2172    2173  # O-H
   1172    1    2172    2174  # O-H
   1173    1    2175    2176  # O-H
   1174    1    2175    2177  # O-H
   1175    1    2178    2179  # O-H
   1176    1    2178    2180  # O-H
   1177    1    2181    2182  # O-H
   1178    1    2181    2183  # O-H
   1179    1    2184    2185  # O-H
   1180    1    2184    2186  # O-H
   1181    1    2187    2188  # O-H
   1182    1    2187    2189  # O-H
   1183    1    2190    2191  # O-H
   1184    1    2190    2192  # O-H
   1185    1    2193    2194  # O-H
   1186    1    2193    2195  # O-H
   1187    1    2196    2197  # O-H
   1188    1    2196    2198  # O-H
   1189    1    2199    2200  # O-H
   1190    1    2199    2201  # O-H
   1191    1    2202    2203  # O-H
   1192    1    2202    2204  # O-H
   1193    1    2205    2206  # O-H
   1194    1    2205    2207  # O-H
   1195    1    2208    2209  # O-H
   1196    1    2208    2210  # O-H
   1197    1    2211    2212  # O-H
   1198    1    2211    2213  # O-H
   1199    1    2214    2215  # O-H
   1200    1    2214    2216  # O-H
   1201    1    2217    2218  # O-H
   1202    1    2217    2219  # O-H
   1203    1    2220    2221  # O-H
   1204    1    2220    2222  # O-H
   1205    1    2223    2224  # O-H
   1206    1    2223    2225  # O-H
   1207    1    2226    2227  # O-H
   1208    1    2226    2228  # O-H
   1209    1    2229    2230  # O-H
   1210    1    2229    2231  # O-H
   1211    1    2232    2233  # O-H
   1212    1    2232    2234  # O-H
   1213    1    2235    2236  # O-H
   1214    1    2235    2237  # O-H
   1215    1    2238    2239  # O-H
   1216    1    2238    2240  # O-H
   1217    1    2241    2242  # O-H
   1218    1    2241    2243  # O-H
   1219    1    2244    2245  # O-H
   1220    1    2244    2246  # O-H
   1221    1    2247    2248  # O-H
   1222    1    2247    2249  # O-H
   1223    1    2250    2251  # O-H
   1224    1    2250    2252  # O-H
   1225    1    2253    2254  # O-H
   1226    1    2253    2255  # O-H
   1227    1    2256    2257  # O-H
   1228    1    2256    2258  # O-H
   1229    1    2259    2260  # O-H
   1230    1    2259    2261  # O-H
   1231    1    2262    2263  # O-H
   1232    1    2262    2264  # O-H
   1233    1    2265    2266  # O-H
   1234    1    2265    2267  # O-H
   1235    1    2268    2269  # O-H
   1236    1    2268    2270  # O-H
   1237    1    2271    2272  # O-H
   1238    1    2271    2273  # O-H
   1239    1    2274    2275  # O-H
   1240    1    2274    2276  # O-H
   1241    1    2277    2278  # O-H
   1242    1    2277    2279  # O-H
   1243    1    2280    2281  # O-H
   1244    1    2280    2282  # O-H
   1245    1    2283    2284  # O-H
   1246    1    2283    2285  # O-H
   1247    1    2286    2287  # O-H
   1248    1    2286    2288  # O-H
   1249    1    2289    2290  # O-H
   1250    1    2289    2291  # O-H
   1251    1    2292    2293  # O-H
   1252    1    2292    2294  # O-H
   1253    1    2295    2296  # O-H
   1254    1    2295    2297  # O-H
   1255    1    2298    2299  # O-H
   1256    1    2298    2300  # O-H
   1257    1    2301    2302  # O-H
   1258    1    2301    2303  # O-H
   1259    1    2304    2305  # O-H
   1260    1    2304    2306  # O-H
   1261    1    2307    2308  # O-H
   1262    1    2307    2309  # O-H
   1263    1    2310    2311  # O-H
   1264    1    2310    2312  # O-H
   1265    1    2313    2314  # O-H
   1266    1    2313    2315  # O-H
   1267    1    2316    2317  # O-H
   1268    1    2316    2318  # O-H
   1269    1    2319    2320  # O-H
   1270    1    2319    2321  # O-H
   1271    1    2322    2323  # O-H
   1272    1    2322    2324  # O-H
   1273    1    2325    2326  # O-H
   1274    1    2325    2327  # O-H
   1275    1    2328    2329  # O-H
   1276    1    2328    2330  # O-H
   1277    1    2331    2332  # O-H
   1278    1    2331    2333  # O-H
   1279    1    2334    2335  # O-H
   1280    1    2334    2336  # O-H
   1281    1    2337    2338  # O-H
   1282    1    2337    2339  # O-H
   1283    1    2340    2341  # O-H
   1284    1    2340    2342  # O-H
   1285    1    2343    2344  # O-H
   1286    1    2343    2345  # O-H
   1287    1    2346    2347  # O-H
   1288    1    2346    2348  # O-H
   1289    1    2349    2350  # O-H
   1290    1    2349    2351  # O-H
   1291    1    2352    2353  # O-H
   1292    1    2352    2354  # O-H
   1293    1    2355    2356  # O-H
   1294    1    2355    2357  # O-H
   1295    1    2358    2359  # O-H
   1296    1    2358    2360  # O-H
   1297    1    2361    2362  # O-H
   1298    1    2361    2363  # O-H
   1299    1    2364    2365  # O-H
   1300    1    2364    2366  # O-H
   1301    1    2367    2368  # O-H
   1302    1    2367    2369  # O-H
   1303    1    2370    2371  # O-H
   1304    1    2370    2372  # O-H
   1305    1    2373    2374  # O-H
   1306    1    2373    2375  # O-H
   1307    1    2376    2377  # O-H
   1308    1    2376    2378  # O-H
   1309    1    2379    2380  # O-H
   1310    1    2379    2381  # O-H
   1311    1    2382    2383  # O-H
   1312    1    2382    2384  # O-H
   1313    1    2385    2386  # O-H
   1314    1    2385    2387  # O-H
   1315    1    2388    2389  # O-H
   1316    1    2388    2390  # O-H
   1317    1    2391    2392  # O-H
   1318    1    2391    2393  # O-H
   1319    1    2394    2395  # O-H
   1320    1    2394    2396  # O-H
   1321    1    2397    2398  # O-H
   1322    1    2397    2399  # O-H
   1323    1    2400    2401  # O-H
   1324    1    2400    2402  # O-H
   1325    1    2403    2404  # O-H
   1326    1    2403    2405  # O-H
   1327    1    2406    2407  # O-H
   1328    1    2406    2408  # O-H
   1329    1    2409    2410  # O-H
   1330    1    2409    2411  # O-H
   1331    1    2412    2413  # O-H
   1332    1    2412    2414  # O-H
   1333    1    2415    2416  # O-H
   1334    1    2415    2417  # O-H
   1335    1    2418    2419  # O-H
   1336    1    2418    2420  # O-H
   1337    1    2421    2422  # O-H
   1338    1    2421    2423  # O-H
   1339    1    2424    2425  # O-H
   1340    1    2424    2426  # O-H
   1341    1    2427    2428  # O-H
   1342    1    2427    2429  # O-H
   1343    1    2430    2431  # O-H
   1344    1    2430    2432  # O-H
   1345    1    2433    2434  # O-H
   1346    1    2433    2435  # O-H
   1347    1    2436    2437  # O-H
   1348    1    2436    2438  # O-H
   1349    1    2439    2440  # O-H
   1350    1    2439    2441  # O-H
   1351    1    2442    2443  # O-H
   1352    1    2442    2444  # O-H
   1353    1    2445    2446  # O-H
   1354    1    2445    2447  # O-H
   1355    1    2448    2449  # O-H
   1356    1    2448    2450  # O-H
   1357    1    2451    2452  # O-H
   1358    1    2451    2453  # O-H
   1359    1    2454    2455  # O-H
   1360    1    2454    2456  # O-H
   1361    1    2457    2458  # O-H
   1362    1    2457    2459  # O-H
   1363    1    2460    2461  # O-H
   1364    1    2460    2462  # O-H
   1365    1    2463    2464  # O-H
   1366    1    2463    2465  # O-H
   1367    1    2466    2467  # O-H
   1368    1    2466    2468  # O-H
   1369    1    2469    2470  # O-H
   1370    1    2469    2471  # O-H
   1371    1    2472    2473  # O-H
   1372    1    2472    2474  # O-H
   1373    1    2475    2476  # O-H
   1374    1    2475    2477  # O-H
   1375    1    2478    2479  # O-H
   1376    1    2478    2480  # O-H
   1377    1    2481    2482  # O-H
   1378    1    2481    2483  # O-H
   1379    1    2484    2485  # O-H
   1380    1    2484    2486  # O-H
   1381    1    2487    2488  # O-H
   1382    1    2487    2489  # O-H
   1383    1    2490    2491  # O-H
   1384    1    2490    2492  # O-H
   1385    1    2493    2494  # O-H
   1386    1    2493    2495  # O-H
   1387    1    2496    2497  # O-H
   1388    1    2496    2498  # O-H
   1389    1    2499    2500  # O-H
   1390    1    2499    2501  # O-H
   1391    1    2502    2503  # O-H
   1392    1    2502    2504  # O-H
   1393    1    2505    2506  # O-H
   1394    1    2505    2507  # O-H
   1395    1    2508    2509  # O-H
   1396    1    2508    2510  # O-H
   1397    1    2511    2512  # O-H
   1398    1    2511    2513  # O-H
   1399    1    2514    2515  # O-H
   1400    1    2514    2516  # O-H
   1401    1    2517    2518  # O-H
   1402    1    2517    2519  # O-H
   1403    1    2520    2521  # O-H
   1404    1    2520    2522  # O-H
   1405    1    2523    2524  # O-H
   1406    1    2523    2525  # O-H
   1407    1    2526    2527  # O-H
   1408    1    2526    2528  # O-H
   1409    1    2529    2530  # O-H
   1410    1    2529    2531  # O-H
   1411    1    2532    2533  # O-H
   1412    1    2532    2534  # O-H
   1413    1    2535    2536  # O-H
   1414    1    2535    2537  # O-H
   1415    1    2538    2539  # O-H
   1416    1    2538    2540  # O-H
   1417    1    2541    2542  # O-H
   1418    1    2541    2543  # O-H
   1419    1    2544    2545  # O-H
   1420    1    2544    2546  # O-H
   1421    1    2547    2548  # O-H
   1422    1    2547    2549  # O-H
   1423    1    2550    2551  # O-H
   1424    1    2550    2552  # O-H
   1425    1    2553    2554  # O-H
   1426    1    2553    2555  # O-H
   1427    1    2556    2557  # O-H
   1428    1    2556    2558  # O-H
   1429    1    2559    2560  # O-H
   1430    1    2559    2561  # O-H
   1431    1    2562    2563  # O-H
   1432    1    2562    2564  # O-H
   1433    1    2565    2566  # O-H
   1434    1    2565    2567  # O-H
   1435    1    2568    2569  # O-H
   1436    1    2568    2570  # O-H
   1437    1    2571    2572  # O-H
   1438    1    2571    2573  # O-H
   1439    1    2574    2575  # O-H
   1440    1    2574    2576  # O-H
   1441    1    2577    2578  # O-H
   1442    1    2577    2579  # O-H
   1443    1    2580    2581  # O-H
   1444    1    2580    2582  # O-H
   1445    1    2583    2584  # O-H
   1446    1    2583    2585  # O-H
   1447    1    2586    2587  # O-H
   1448    1    2586    2588  # O-H
   1449    1    2589    2590  # O-H
   1450    1    2589    2591  # O-H
   1451    1    2592    2593  # O-H
   1452    1    2592    2594  # O-H
   1453    1    2595    2596  # O-H
   1454    1    2595    2597  # O-H
   1455    1    2598    2599  # O-H
   1456    1    2598    2600  # O-H
   1457    1    2601    2602  # O-H
   1458    1    2601    2603  # O-H
   1459    1    2604    2605  # O-H
   1460    1    2604    2606  # O-H
   1461    1    2607    2608  # O-H
   1462    1    2607    2609  # O-H
   1463    1    2610    2611  # O-H
   1464    1    2610    2612  # O-H
   1465    1    2613    2614  # O-H
   1466    1    2613    2615  # O-H
   1467    1    2616    2617  # O-H
   1468    1    2616    2618  # O-H
   1469    1    2619    2620  # O-H
   1470    1    2619    2621  # O-H
   1471    1    2622    2623  # O-H
   1472    1    2622    2624  # O-H
   1473    1    2625    2626  # O-H
   1474    1    2625    2627  # O-H
   1475    1    2628    2629  # O-H
   1476    1    2628    2630  # O-H
   1477    1    2631    2632  # O-H
   1478    1    2631    2633  # O-H
   1479    1    2634    2635  # O-H
   1480    1    2634    2636  # O-H
   1481    1    2637    2638  # O-H
   1482    1    2637    2639  # O-H
   1483    1    2640    2641  # O-H
   1484    1    2640    2642  # O-H
   1485    1    2643    2644  # O-H
   1486    1    2643    2645  # O-H
   1487    1    2646    2647  # O-H
   1488    1    2646    2648  # O-H
   1489    1    2649    2650  # O-H
   1490    1    2649    2651  # O-H
   1491    1    2652    2653  # O-H
   1492    1    2652    2654  # O-H
   1493    1    2655    2656  # O-H
   1494    1    2655    2657  # O-H
   1495    1    2658    2659  # O-H
   1496    1    2658    2660  # O-H
   1497    1    2661    2662  # O-H
   1498    1    2661    2663  # O-H
   1499    1    2664    2665  # O-H
   1500    1    2664    2666  # O-H
   1501    1    2667    2668  # O-H
   1502    1    2667    2669  # O-H
   1503    1    2670    2671  # O-H
   1504    1    2670    2672  # O-H
   1505    1    2673    2674  # O-H
   1506    1    2673    2675  # O-H
   1507    1    2676    2677  # O-H
   1508    1    2676    2678  # O-H
   1509    1    2679    2680  # O-H
   1510    1    2679    2681  # O-H
   1511    1    2682    2683  # O-H
   1512    1    2682    2684  # O-H
   1513    1    2685    2686  # O-H
   1514    1    2685    2687  # O-H
   1515    1    2688    2689  # O-H
   1516    1    2688    2690  # O-H
   1517    1    2691    2692  # O-H
   1518    1    2691    2693  # O-H
   1519    1    2694    2695  # O-H
   1520    1    2694    2696  # O-H
   1521    1    2697    2698  # O-H
   1522    1    2697    2699  # O-H
   1523    1    2700    2701  # O-H
   1524    1    2700    2702  # O-H
   1525    1    2703    2704  # O-H
   1526    1    2703    2705  # O-H
   1527    1    2706    2707  # O-H
   1528    1    2706    2708  # O-H
   1529    1    2709    2710  # O-H
   1530    1    2709    2711  # O-H
   1531    1    2712    2713  # O-H
   1532    1    2712    2714  # O-H
   1533    1    2715    2716  # O-H
   1534    1    2715    2717  # O-H
   1535    1    2718    2719  # O-H
   1536    1    2718    2720  # O-H
   1537    1    2721    2722  # O-H
   1538    1    2721    2723  # O-H
   1539    1    2724    2725  # O-H
   1540    1    2724    2726  # O-H
   1541    1    2727    2728  # O-H
   1542    1    2727    2729  # O-H
   1543    1    2730    2731  # O-H
   1544    1    2730    2732  # O-H
   1545    1    2733    2734  # O-H
   1546    1    2733    2735  # O-H
   1547    1    2736    2737  # O-H
   1548    1    2736    2738  # O-H
   1549    1    2739    2740  # O-H
   1550    1    2739    2741  # O-H
   1551    1    2742    2743  # O-H
   1552    1    2742    2744  # O-H
   1553    1    2745    2746  # O-H
   1554    1    2745    2747  # O-H
   1555    1    2748    2749  # O-H
   1556    1    2748    2750  # O-H
   1557    1    2751    2752  # O-H
   1558    1    2751    2753  # O-H
   1559    1    2754    2755  # O-H
   1560    1    2754    2756  # O-H
   1561    1    2757    2758  # O-H
   1562    1    2757    2759  # O-H
   1563    1    2760    2761  # O-H
   1564    1    2760    2762  # O-H
   1565    1    2763    2764  # O-H
   1566    1    2763    2765  # O-H
   1567    1    2766    2767  # O-H
   1568    1    2766    2768  # O-H
   1569    1    2769    2770  # O-H
   1570    1    2769    2771  # O-H
   1571    1    2772    2773  # O-H
   1572    1    2772    2774  # O-H
   1573    1    2775    2776  # O-H
   1574    1    2775    2777  # O-H
   1575    1    2778    2779  # O-H
   1576    1    2778    2780  # O-H
   1577    1    2781    2782  # O-H
   1578    1    2781    2783  # O-H
   1579    1    2784    2785  # O-H
   1580    1    2784    2786  # O-H
   1581    1    2787    2788  # O-H
   1582    1    2787    2789  # O-H
   1583    1    2790    2791  # O-H
   1584    1    2790    2792  # O-H
   1585    1    2793    2794  # O-H
   1586    1    2793    2795  # O-H
   1587    1    2796    2797  # O-H
   1588    1    2796    2798  # O-H
   1589    1    2799    2800  # O-H
   1590    1    2799    2801  # O-H
   1591    1    2802    2803  # O-H
   1592    1    2802    2804  # O-H
   1593    1    2805    2806  # O-H
   1594    1    2805    2807  # O-H
   1595    1    2808    2809  # O-H
   1596    1    2808    2810  # O-H
   1597    1    2811    2812  # O-H
   1598    1    2811    2813  # O-H
   1599    1    2814    2815  # O-H
   1600    1    2814    2816  # O-H
   1601    1    2817    2818  # O-H
   1602    1    2817    2819  # O-H
   1603    1    2820    2821  # O-H
   1604    1    2820    2822  # O-H
   1605    1    2823    2824  # O-H
   1606    1    2823    2825  # O-H
   1607    1    2826    2827  # O-H
   1608    1    2826    2828  # O-H
   1609    1    2829    2830  # O-H
   1610    1    2829    2831  # O-H
   1611    1    2832    2833  # O-H
   1612    1    2832    2834  # O-H
   1613    1    2835    2836  # O-H
   1614    1    2835    2837  # O-H
   1615    1    2838    2839  # O-H
   1616    1    2838    2840  # O-H
   1617    1    2841    2842  # O-H
   1618    1    2841    2843  # O-H
   1619    1    2844    2845  # O-H
   1620    1    2844    2846  # O-H
   1621    1    2847    2848  # O-H
   1622    1    2847    2849  # O-H
   1623    1    2850    2851  # O-H
   1624    1    2850    2852  # O-H
   1625    1    2853    2854  # O-H
   1626    1    2853    2855  # O-H
   1627    1    2856    2857  # O-H
   1628    1    2856    2858  # O-H
   1629    1    2859    2860  # O-H
   1630    1    2859    2861  # O-H
   1631    1    2862    2863  # O-H
   1632    1    2862    2864  # O-H
   1633    1    2865    2866  # O-H
   1634    1    2865    2867  # O-H
   1635    1    2868    2869  # O-H
   1636    1    2868    2870  # O-H
   1637    1    2871    2872  # O-H
   1638    1    2871    2873  # O-H
   1639    1    2874    2875  # O-H
   1640    1    2874    2876  # O-H
   1641    1    2877    2878  # O-H
   1642    1    2877    2879  # O-H
   1643    1    2880    2881  # O-H
   1644    1    2880    2882  # O-H
   1645    1    2883    2884  # O-H
   1646    1    2883    2885  # O-H
   1647    1    2886    2887  # O-H
   1648    1    2886    2888  # O-H
   1649    1    2889    2890  # O-H
   1650    1    2889    2891  # O-H
   1651    1    2892    2893  # O-H
   1652    1    2892    2894  # O-H
   1653    1    2895    2896  # O-H
   1654    1    2895    2897  # O-H
   1655    1    2898    2899  # O-H
   1656    1    2898    2900  # O-H
   1657    1    2901    2902  # O-H
   1658    1    2901    2903  # O-H
   1659    1    2904    2905  # O-H
   1660    1    2904    2906  # O-H
   1661    1    2907    2908  # O-H
   1662    1    2907    2909  # O-H
   1663    1    2910    2911  # O-H
   1664    1    2910    2912  # O-H
   1665    1    2913    2914  # O-H
   1666    1    2913    2915  # O-H
   1667    1    2916    2917  # O-H
   1668    1    2916    2918  # O-H
   1669    1    2919    2920  # O-H
   1670    1    2919    2921  # O-H
   1671    1    2922    2923  # O-H
   1672    1    2922    2924  # O-H
   1673    1    2925    2926  # O-H
   1674    1    2925    2927  # O-H
   1675    1    2928    2929  # O-H
   1676    1    2928    2930  # O-H
   1677    1    2931    2932  # O-H
   1678    1    2931    2933  # O-H
   1679    1    2934    2935  # O-H
   1680    1    2934    2936  # O-H
   1681    1    2937    2938  # O-H
   1682    1    2937    2939  # O-H
   1683    1    2940    2941  # O-H
   1684    1    2940    2942  # O-H
   1685    1    2943    2944  # O-H
   1686    1    2943    2945  # O-H
   1687    1    2946    2947  # O-H
   1688    1    2946    2948  # O-H
   1689    1    2949    2950  # O-H
   1690    1    2949    2951  # O-H
   1691    1    2952    2953  # O-H
   1692    1    2952    2954  # O-H
   1693    1    2955    2956  # O-H
   1694    1    2955    2957  # O-H
   1695    1    2958    2959  # O-H
   1696    1    2958    2960  # O-H
   1697    1    2961    2962  # O-H
   1698    1    2961    2963  # O-H
   1699    1    2964    2965  # O-H
   1700    1    2964    2966  # O-H
   1701    1    2967    2968  # O-H
   1702    1    2967    2969  # O-H
   1703    1    2970    2971  # O-H
   1704    1    2970    2972  # O-H
   1705    1    2973    2974  # O-H
   1706    1    2973    2975  # O-H
   1707    1    2976    2977  # O-H
   1708    1    2976    2978  # O-H
   1709    1    2979    2980  # O-H
   1710    1    2979    2981  # O-H
   1711    1    2982    2983  # O-H
   1712    1    2982    2984  # O-H
   1713    1    2985    2986  # O-H
   1714    1    2985    2987  # O-H
   1715    1    2988    2989  # O-H
   1716    1    2988    2990  # O-H
   1717    1    2991    2992  # O-H
   1718    1    2991    2993  # O-H
   1719    1    2994    2995  # O-H
   1720    1    2994    2996  # O-H
   1721    1    2997    2998  # O-H
   1722    1    2997    2999  # O-H
   1723    1    3000    3001  # O-H
   1724    1    3000    3002  # O-H
   1725    1    3003    3004  # O-H
   1726    1    3003    3005  # O-H
   1727    1    3006    3007  # O-H
   1728    1    3006    3008  # O-H
   1729    1    3009    3010  # O-H
   1730    1    3009    3011  # O-H
   1731    1    3012    3013  # O-H
   1732    1    3012    3014  # O-H
   1733    1    3015    3016  # O-H
   1734    1    3015    3017  # O-H
   1735    1    3018    3019  # O-H
   1736    1    3018    3020  # O-H
   1737    1    3021    3022  # O-H
   1738    1    3021    3023  # O-H
   1739    1    3024    3025  # O-H
   1740    1    3024    3026  # O-H
   1741    1    3027    3028  # O-H
   1742    1    3027    3029  # O-H
   1743    1    3030    3031  # O-H
   1744    1    3030    3032  # O-H
   1745    1    3033    3034  # O-H
   1746    1    3033    3035  # O-H
   1747    1    3036    3037  # O-H
   1748    1    3036    3038  # O-H
   1749    1    3039    3040  # O-H
   1750    1    3039    3041  # O-H
   1751    1    3042    3043  # O-H
   1752    1    3042    3044  # O-H
   1753    1    3045    3046  # O-H
   1754    1    3045    3047  # O-H
   1755    1    3048    3049  # O-H
   1756    1    3048    3050  # O-H
   1757    1    3051    3052  # O-H
   1758    1    3051    3053  # O-H
   1759    1    3054    3055  # O-H
   1760    1    3054    3056  # O-H
   1761    1    3057    3058  # O-H
   1762    1    3057    3059  # O-H
   1763    1    3060    3061  # O-H
   1764    1    3060    3062  # O-H
   1765    1    3063    3064  # O-H
   1766    1    3063    3065  # O-H
   1767    1    3066    3067  # O-H
   1768    1    3066    3068  # O-H
   1769    1    3069    3070  # O-H
   1770    1    3069    3071  # O-H
   1771    1    3072    3073  # O-H
   1772    1    3072    3074  # O-H
   1773    1    3075    3076  # O-H
   1774    1    3075    3077  # O-H
   1775    1    3078    3079  # O-H
   1776    1    3078    3080  # O-H
   1777    1    3081    3082  # O-H
   1778    1    3081    3083  # O-H
   1779    1    3084    3085  # O-H
   1780    1    3084    3086  # O-H
   1781    1    3087    3088  # O-H
   1782    1    3087    3089  # O-H
   1783    1    3090    3091  # O-H
   1784    1    3090    3092  # O-H
   1785    1    3093    3094  # O-H
   1786    1    3093    3095  # O-H
   1787    1    3096    3097  # O-H
   1788    1    3096    3098  # O-H
   1789    1    3099    3100  # O-H
   1790    1    3099    3101  # O-H
   1791    1    3102    3103  # O-H
   1792    1    3102    3104  # O-H
   1793    1    3105    3106  # O-H
   1794    1    3105    3107  # O-H
   1795    1    3108    3109  # O-H
   1796    1    3108    3110  # O-H
   1797    1    3111    3112  # O-H
   1798    1    3111    3113  # O-H
   1799    1    3114    3115  # O-H
   1800    1    3114    3116  # O-H
   1801    1    3117    3118  # O-H
   1802    1    3117    3119  # O-H
   1803    1    3120    3121  # O-H
   1804    1    3120    3122  # O-H
   1805    1    3123    3124  # O-H
   1806    1    3123    3125  # O-H
   1807    1    3126    3127  # O-H
   1808    1    3126    3128  # O-H
   1809    1    3129    3130  # O-H
   1810    1    3129    3131  # O-H
   1811    1    3132    3133  # O-H
   1812    1    3132    3134  # O-H
   1813    1    3135    3136  # O-H
   1814    1    3135    3137  # O-H
   1815    1    3138    3139  # O-H
   1816    1    3138    3140  # O-H
   1817    1    3141    3142  # O-H
   1818    1    3141    3143  # O-H
   1819    1    3144    3145  # O-H
   1820    1    3144    3146  # O-H
   1821    1    3147    3148  # O-H
   1822    1    3147    3149  # O-H
   1823    1    3150    3151  # O-H
   1824    1    3150    3152  # O-H
   1825    1    3153    3154  # O-H
   1826    1    3153    3155  # O-H
   1827    1    3156    3157  # O-H
   1828    1    3156    3158  # O-H
   1829    1    3159    3160  # O-H
   1830    1    3159    3161  # O-H
   1831    1    3162    3163  # O-H
   1832    1    3162    3164  # O-H
   1833    1    3165    3166  # O-H
   1834    1    3165    3167  # O-H
   1835    1    3168    3169  # O-H
   1836    1    3168    3170  # O-H
   1837    1    3171    3172  # O-H
   1838    1    3171    3173  # O-H
   1839    1    3174    3175  # O-H
   1840    1    3174    3176  # O-H
   1841    1    3177    3178  # O-H
   1842    1    3177    3179  # O-H
   1843    1    3180    3181  # O-H
   1844    1    3180    3182  # O-H
   1845    1    3183    3184  # O-H
   1846    1    3183    3185  # O-H
   1847    1    3186    3187  # O-H
   1848    1    3186    3188  # O-H
   1849    1    3189    3190  # O-H
   1850    1    3189    3191  # O-H
   1851    1    3192    3193  # O-H
   1852    1    3192    3194  # O-H
   1853    1    3195    3196  # O-H
   1854    1    3195    3197  # O-H
   1855    1    3198    3199  # O-H
   1856    1    3198    3200  # O-H
   1857    1    3201    3202  # O-H
   1858    1    3201    3203  # O-H
   1859    1    3204    3205  # O-H
   1860    1    3204    3206  # O-H
   1861    1    3207    3208  # O-H
   1862    1    3207    3209  # O-H
   1863    1    3210    3211  # O-H
   1864    1    3210    3212  # O-H
   1865    1    3213    3214  # O-H
   1866    1    3213    3215  # O-H
   1867    1    3216    3217  # O-H
   1868    1    3216    3218  # O-H
   1869    1    3219    3220  # O-H
   1870    1    3219    3221  # O-H
   1871    1    3222    3223  # O-H
   1872    1    3222    3224  # O-H
   1873    1    3225    3226  # O-H
   1874    1    3225    3227  # O-H
   1875    1    3228    3229  # O-H
   1876    1    3228    3230  # O-H
   1877    1    3231    3232  # O-H
   1878    1    3231    3233  # O-H
   1879    1    3234    3235  # O-H
   1880    1    3234    3236  # O-H
   1881    1    3237    3238  # O-H
   1882    1    3237    3239  # O-H
   1883    1    3240    3241  # O-H
   1884    1    3240    3242  # O-H
   1885    1    3243    3244  # O-H
   1886    1    3243    3245  # O-H
   1887    1    3246    3247  # O-H
   1888    1    3246    3248  # O-H
   1889    1    3249    3250  # O-H
   1890    1    3249    3251  # O-H
   1891    1    3252    3253  # O-H
   1892    1    3252    3254  # O-H
   1893    1    3255    3256  # O-H
   1894    1    3255    3257  # O-H
   1895    1    3258    3259  # O-H
   1896    1    3258    3260  # O-H
   1897    1    3261    3262  # O-H
   1898    1    3261    3263  # O-H
   1899    1    3264    3265  # O-H
   1900    1    3264    3266  # O-H
   1901    1    3267    3268  # O-H
   1902    1    3267    3269  # O-H
   1903    1    3270    3271  # O-H
   1904    1    3270    3272  # O-H
   1905    1    3273    3274  # O-H
   1906    1    3273    3275  # O-H
   1907    1    3276    3277  # O-H
   1908    1    3276    3278  # O-H
   1909    1    3279    3280  # O-H
   1910    1    3279    3281  # O-H
   1911    1    3282    3283  # O-H
   1912    1    3282    3284  # O-H
   1913    1    3285    3286  # O-H
   1914    1    3285    3287  # O-H
   1915    1    3288    3289  # O-H
   1916    1    3288    3290  # O-H
   1917    1    3291    3292  # O-H
   1918    1    3291    3293  # O-H
   1919    1    3294    3295  # O-H
   1920    1    3294    3296  # O-H
   1921    1    3297    3298  # O-H
   1922    1    3297    3299  # O-H
   1923    1    3300    3301  # O-H
   1924    1    3300    3302  # O-H
   1925    1    3303    3304  # O-H
   1926    1    3303    3305  # O-H
   1927    1    3306    3307  # O-H
   1928    1    3306    3308  # O-H
   1929    1    3309    3310  # O-H
   1930    1    3309    3311  # O-H
   1931    1    3312    3313  # O-H
   1932    1    3312    3314  # O-H
   1933    1    3315    3316  # O-H
   1934    1    3315    3317  # O-H
   1935    1    3318    3319  # O-H
   1936    1    3318    3320  # O-H
   1937    1    3321    3322  # O-H
   1938    1    3321    3323  # O-H
   1939    1    3324    3325  # O-H
   1940    1    3324    3326  # O-H
   1941    1    3327    3328  # O-H
   1942    1    3327    3329  # O-H
   1943    1    3330    3331  # O-H
   1944    1    3330    3332  # O-H
   1945    1    3333    3334  # O-H
   1946    1    3333    3335  # O-H
   1947    1    3336    3337  # O-H
   1948    1    3336    3338  # O-H
   1949    1    3339    3340  # O-H
   1950    1    3339    3341  # O-H
   1951    1    3342    3343  # O-H
   1952    1    3342    3344  # O-H
   1953    1    3345    3346  # O-H
   1954    1    3345    3347  # O-H
   1955    1    3348    3349  # O-H
   1956    1    3348    3350  # O-H
   1957    1    3351    3352  # O-H
   1958    1    3351    3353  # O-H
   1959    1    3354    3355  # O-H
   1960    1    3354    3356  # O-H
   1961    1    3357    3358  # O-H
   1962    1    3357    3359  # O-H
   1963    1    3360    3361  # O-H
   1964    1    3360    3362  # O-H
   1965    1    3363    3364  # O-H
   1966    1    3363    3365  # O-H
   1967    1    3366    3367  # O-H
   1968    1    3366    3368  # O-H
   1969    1    3369    3370  # O-H
   1970    1    3369    3371  # O-H
   1971    1    3372    3373  # O-H
   1972    1    3372    3374  # O-H
   1973    1    3375    3376  # O-H
   1974    1    3375    3377  # O-H
   1975    1    3378    3379  # O-H
   1976    1    3378    3380  # O-H
   1977    1    3381    3382  # O-H
   1978    1    3381    3383  # O-H
   1979    1    3384    3385  # O-H
   1980    1    3384    3386  # O-H
   1981    1    3387    3388  # O-H
   1982    1    3387    3389  # O-H
   1983    1    3390    3391  # O-H
   1984    1    3390    3392  # O-H
   1985    1    3393    3394  # O-H
   1986    1    3393    3395  # O-H
   1987    1    3396    3397  # O-H
   1988    1    3396    3398  # O-H
   1989    1    3399    3400  # O-H
   1990    1    3399    3401  # O-H
   1991    1    3402    3403  # O-H
   1992    1    3402    3404  # O-H
   1993    1    3405    3406  # O-H
   1994    1    3405    3407  # O-H
   1995    1    3408    3409  # O-H
   1996    1    3408    3410  # O-H
   1997    1    3411    3412  # O-H
   1998    1    3411    3413  # O-H
   1999    1    3414    3415  # O-H
   2000    1    3414    3416  # O-H
   2001    1    3417    3418  # O-H
   2002    1    3417    3419  # O-H
   2003    1    3420    3421  # O-H
   2004    1    3420    3422  # O-H
   2005    1    3423    3424  # O-H
   2006    1    3423    3425  # O-H
   2007    1    3426    3427  # O-H
   2008    1    3426    3428  # O-H
   2009    1    3429    3430  # O-H
   2010    1    3429    3431  # O-H
   2011    1    3432    3433  # O-H
   2012    1    3432    3434  # O-H
   2013    1    3435    3436  # O-H
   2014    1    3435    3437  # O-H
   2015    1    3438    3439  # O-H
   2016    1    3438    3440  # O-H
   2017    1    3441    3442  # O-H
   2018    1    3441    3443  # O-H
   2019    1    3444    3445  # O-H
   2020    1    3444    3446  # O-H
   2021    1    3447    3448  # O-H
   2022    1    3447    3449  # O-H
   2023    1    3450    3451  # O-H
   2024    1    3450    3452  # O-H
   2025    1    3453    3454  # O-H
   2026    1    3453    3455  # O-H
   2027    1    3456    3457  # O-H
   2028    1    3456    3458  # O-H
   2029    1    3459    3460  # O-H
   2030    1    3459    3461  # O-H
   2031    1    3462    3463  # O-H
   2032    1    3462    3464  # O-H
   2033    1    3465    3466  # O-H
   2034    1    3465    3467  # O-H
   2035    1    3468    3469  # O-H
   2036    1    3468    3470  # O-H
   2037    1    3471    3472  # O-H
   2038    1    3471    3473  # O-H
   2039    1    3474    3475  # O-H
   2040    1    3474    3476  # O-H
   2041    1    3477    3478  # O-H
   2042    1    3477    3479  # O-H
   2043    1    3480    3481  # O-H
   2044    1    3480    3482  # O-H
   2045    1    3483    3484  # O-H
   2046    1    3483    3485  # O-H
   2047    1    3486    3487  # O-H
   2048    1    3486    3488  # O-H
   2049    1    3489    3490  # O-H
   2050    1    3489    3491  # O-H
   2051    1    3492    3493  # O-H
   2052    1    3492    3494  # O-H
   2053    1    3495    3496  # O-H
   2054    1    3495    3497  # O-H
   2055    1    3498    3499  # O-H
   2056    1    3498    3500  # O-H
   2057    1    3501    3502  # O-H
   2058    1    3501    3503  # O-H
   2059    1    3504    3505  # O-H
   2060    1    3504    3506  # O-H
   2061    1    3507    3508  # O-H
   2062    1    3507    3509  # O-H
   2063    1    3510    3511  # O-H
   2064    1    3510    3512  # O-H
   2065    1    3513    3514  # O-H
   2066    1    3513    3515  # O-H
   2067    1    3516    3517  # O-H
   2068    1    3516    3518  # O-H
   2069    1    3519    3520  # O-H
   2070    1    3519    3521  # O-H
   2071    1    3522    3523  # O-H
   2072    1    3522    3524  # O-H
   2073    1    3525    3526  # O-H
   2074    1    3525    3527  # O-H
   2075    1    3528    3529  # O-H
   2076    1    3528    3530  # O-H
   2077    1    3531    3532  # O-H
   2078    1    3531    3533  # O-H
   2079    1    3534    3535  # O-H
   2080    1    3534    3536  # O-H
   2081    1    3537    3538  # O-H
   2082    1    3537    3539  # O-H
   2083    1    3540    3541  # O-H
   2084    1    3540    3542  # O-H
   2085    1    3543    3544  # O-H
   2086    1    3543    3545  # O-H
   2087    1    3546    3547  # O-H
   2088    1    3546    3548  # O-H
   2089    1    3549    3550  # O-H
   2090    1    3549    3551  # O-H
   2091    1    3552    3553  # O-H
   2092    1    3552    3554  # O-H
   2093    1    3555    3556  # O-H
   2094    1    3555    3557  # O-H
   2095    1    3558    3559  # O-H
   2096    1    3558    3560  # O-H
   2097    1    3561    3562  # O-H
   2098    1    3561    3563  # O-H
   2099    1    3564    3565  # O-H
   2100    1    3564    3566  # O-H
   2101    1    3567    3568  # O-H
   2102    1    3567    3569  # O-H
   2103    1    3570    3571  # O-H
   2104    1    3570    3572  # O-H
   2105    1    3573    3574  # O-H
   2106    1    3573    3575  # O-H
   2107    1    3576    3577  # O-H
   2108    1    3576    3578  # O-H
   2109    1    3579    3580  # O-H
   2110    1    3579    3581  # O-H
   2111    1    3582    3583  # O-H
   2112    1    3582    3584  # O-H
   2113    1    3585    3586  # O-H
   2114    1    3585    3587  # O-H
   2115    1    3588    3589  # O-H
   2116    1    3588    3590  # O-H
   2117    1    3591    3592  # O-H
   2118    1    3591    3593  # O-H
   2119    1    3594    3595  # O-H
   2120    1    3594    3596  # O-H
   2121    1    3597    3598  # O-H
   2122    1    3597    3599  # O-H
   2123    1    3600    3601  # O-H
   2124    1    3600    3602  # O-H
   2125    1    3603    3604  # O-H
   2126    1    3603    3605  # O-H
   2127    1    3606    3607  # O-H
   2128    1    3606    3608  # O-H
   2129    1    3609    3610  # O-H
   2130    1    3609    3611  # O-H
   2131    1    3612    3613  # O-H
   2132    1    3612    3614  # O-H
   2133    1    3615    3616  # O-H
   2134    1    3615    3617  # O-H
   2135    1    3618    3619  # O-H
   2136    1    3618    3620  # O-H
   2137    1    3621    3622  # O-H
   2138    1    3621    3623  # O-H
   2139    1    3624    3625  # O-H
   2140    1    3624    3626  # O-H
   2141    1    3627    3628  # O-H
   2142    1    3627    3629  # O-H
   2143    1    3630    3631  # O-H
   2144    1    3630    3632  # O-H
   2145    1    3633    3634  # O-H
   2146    1    3633    3635  # O-H
   2147    1    3636    3637  # O-H
   2148    1    3636    3638  # O-H
   2149    1    3639    3640  # O-H
   2150    1    3639    3641  # O-H
   2151    1    3642    3643  # O-H
   2152    1    3642    3644  # O-H
   2153    1    3645    3646  # O-H
   2154    1    3645    3647  # O-H
   2155    1    3648    3649  # O-H
   2156    1    3648    3650  # O-H
   2157    1    3651    3652  # O-H
   2158    1    3651    3653  # O-H
   2159    1    3654    3655  # O-H
   2160    1    3654    3656  # O-H
   2161    1    3657    3658  # O-H
   2162    1    3657    3659  # O-H
   2163    1    3660    3661  # O-H
   2164    1    3660    3662  # O-H
   2165    1    3663    3664  # O-H
   2166    1    3663    3665  # O-H
   2167    1    3666    3667  # O-H
   2168    1    3666    3668  # O-H
   2169    1    3669    3670  # O-H
   2170    1    3669    3671  # O-H
   2171    1    3672    3673  # O-H
   2172    1    3672    3674  # O-H
   2173    1    3675    3676  # O-H
   2174    1    3675    3677  # O-H
   2175    1    3678    3679  # O-H
   2176    1    3678    3680  # O-H
   2177    1    3681    3682  # O-H
   2178    1    3681    3683  # O-H
   2179    1    3684    3685  # O-H
   2180    1    3684    3686  # O-H
   2181    1    3687    3688  # O-H
   2182    1    3687    3689  # O-H
   2183    1    3690    3691  # O-H
   2184    1    3690    3692  # O-H
   2185    1    3693    3694  # O-H
   2186    1    3693    3695  # O-H
   2187    1    3696    3697  # O-H
   2188    1    3696    3698  # O-H
   2189    1    3699    3700  # O-H
   2190    1    3699    3701  # O-H
   2191    1    3702    3703  # O-H
   2192    1    3702    3704  # O-H
   2193    1    3705    3706  # O-H
   2194    1    3705    3707  # O-H
   2195    1    3708    3709  # O-H
   2196    1    3708    3710  # O-H
   2197    1    3711    3712  # O-H
   2198    1    3711    3713  # O-H
   2199    1    3714    3715  # O-H
   2200    1    3714    3716  # O-H
   2201    1    3717    3718  # O-H
   2202    1    3717    3719  # O-H
   2203    1    3720    3721  # O-H
   2204    1    3720    3722  # O-H
   2205    1    3723    3724  # O-H
   2206    1    3723    3725  # O-H
   2207    1    3726    3727  # O-H
   2208    1    3726    3728  # O-H
   2209    1    3729    3730  # O-H
   2210    1    3729    3731  # O-H
   2211    1    3732    3733  # O-H
   2212    1    3732    3734  # O-H
   2213    1    3735    3736  # O-H
   2214    1    3735    3737  # O-H
   2215    1    3738    3739  # O-H
   2216    1    3738    3740  # O-H
   2217    1    3741    3742  # O-H
   2218    1    3741    3743  # O-H
   2219    1    3744    3745  # O-H
   2220    1    3744    3746  # O-H
   2221    1    3747    3748  # O-H
   2222    1    3747    3749  # O-H
   2223    1    3750    3751  # O-H
   2224    1    3750    3752  # O-H
   2225    1    3753    3754  # O-H
   2226    1    3753    3755  # O-H
   2227    1    3756    3757  # O-H
   2228    1    3756    3758  # O-H
   2229    1    3759    3760  # O-H
   2230    1    3759    3761  # O-H
   2231    1    3762    3763  # O-H
   2232    1    3762    3764  # O-H
   2233    1    3765    3766  # O-H
   2234    1    3765    3767  # O-H
   2235    1    3768    3769  # O-H
   2236    1    3768    3770  # O-H
   2237    1    3771    3772  # O-H
   2238    1    3771    3773  # O-H
   2239    1    3774    3775  # O-H
   2240    1    3774    3776  # O-H
   2241    1    3777    3778  # O-H
   2242    1    3777    3779  # O-H
   2243    1    3780    3781  # O-H
   2244    1    3780    3782  # O-H
   2245    1    3783    3784  # O-H
   2246    1    3783    3785  # O-H
   2247    1    3786    3787  # O-H
   2248    1    3786    3788  # O-H
   2249    1    3789    3790  # O-H
   2250    1    3789    3791  # O-H
   2251    1    3792    3793  # O-H
   2252    1    3792    3794  # O-H
   2253    1    3795    3796  # O-H
   2254    1    3795    3797  # O-H
   2255    1    3798    3799  # O-H
   2256    1    3798    3800  # O-H
   2257    1    3801    3802  # O-H
   2258    1    3801    3803  # O-H
   2259    1    3804    3805  # O-H
   2260    1    3804    3806  # O-H
   2261    1    3807    3808  # O-H
   2262    1    3807    3809  # O-H
   2263    1    3810    3811  # O-H
   2264    1    3810    3812  # O-H
   2265    1    3813    3814  # O-H
   2266    1    3813    3815  # O-H
   2267    1    3816    3817  # O-H
   2268    1    3816    3818  # O-H
   2269    1    3819    3820  # O-H
   2270    1    3819    3821  # O-H
   2271    1    3822    3823  # O-H
   2272    1    3822    3824  # O-H
   2273    1    3825    3826  # O-H
   2274    1    3825    3827  # O-H
   2275    1    3828    3829  # O-H
   2276    1    3828    3830  # O-H
   2277    1    3831    3832  # O-H
   2278    1    3831    3833  # O-H
   2279    1    3834    3835  # O-H
   2280    1    3834    3836  # O-H
   2281    1    3837    3838  # O-H
   2282    1    3837    3839  # O-H
   2283    1    3840    3841  # O-H
   2284    1    3840    3842  # O-H
   2285    1    3843    3844  # O-H
   2286    1    3843    3845  # O-H
   2287    1    3846    3847  # O-H
   2288    1    3846    3848  # O-H
   2289    1    3849    3850  # O-H
   2290    1    3849    3851  # O-H
   2291    1    3852    3853  # O-H
   2292    1    3852    3854  # O-H
   2293    1    3855    3856  # O-H
   2294    1    3855    3857  # O-H
   2295    1    3858    3859  # O-H
   2296    1    3858    3860  # O-H
   2297    1    3861    3862  # O-H
   2298    1    3861    3863  # O-H
   2299    1    3864    3865  # O-H
   2300    1    3864    3866  # O-H
   2301    1    3867    3868  # O-H
   2302    1    3867    3869  # O-H
   2303    1    3870    3871  # O-H
   2304    1    3870    3872  # O-H
   2305    1    3873    3874  # O-H
   2306    1    3873    3875  # O-H
   2307    1    3876    3877  # O-H
   2308    1    3876    3878  # O-H
   2309    1    3879    3880  # O-H
   2310    1    3879    3881  # O-H
   2311    1    3882    3883  # O-H
   2312    1    3882    3884  # O-H
   2313    1    3885    3886  # O-H
   2314    1    3885    3887  # O-H
   2315    1    3888    3889  # O-H
   2316    1    3888    3890  # O-H
   2317    1    3891    3892  # O-H
   2318    1    3891    3893  # O-H
   2319    1    3894    3895  # O-H
   2320    1    3894    3896  # O-H
   2321    1    3897    3898  # O-H
   2322    1    3897    3899  # O-H
   2323    1    3900    3901  # O-H
   2324    1    3900    3902  # O-H
   2325    1    3903    3904  # O-H
   2326    1    3903    3905  # O-H
   2327    1    3906    3907  # O-H
   2328    1    3906    3908  # O-H
   2329    1    3909    3910  # O-H
   2330    1    3909    3911  # O-H
   2331    1    3912    3913  # O-H
   2332    1    3912    3914  # O-H
   2333    1    3915    3916  # O-H
   2334    1    3915    3917  # O-H
   2335    1    3918    3919  # O-H
   2336    1    3918    3920  # O-H
   2337    1    3921    3922  # O-H
   2338    1    3921    3923  # O-H
   2339    1    3924    3925  # O-H
   2340    1    3924    3926  # O-H
   2341    1    3927    3928  # O-H
   2342    1    3927    3929  # O-H
   2343    1    3930    3931  # O-H
   2344    1    3930    3932  # O-H
   2345    1    3933    3934  # O-H
   2346    1    3933    3935  # O-H
   2347    1    3936    3937  # O-H
   2348    1    3936    3938  # O-H
   2349    1    3939    3940  # O-H
   2350    1    3939    3941  # O-H
   2351    1    3942    3943  # O-H
   2352    1    3942    3944  # O-H
   2353    1    3945    3946  # O-H
   2354    1    3945    3947  # O-H
   2355    1    3948    3949  # O-H
   2356    1    3948    3950  # O-H
   2357    1    3951    3952  # O-H
   2358    1    3951    3953  # O-H
   2359    1    3954    3955  # O-H
   2360    1    3954    3956  # O-H
   2361    1    3957    3958  # O-H
   2362    1    3957    3959  # O-H
   2363    1    3960    3961  # O-H
   2364    1    3960    3962  # O-H
   2365    1    3963    3964  # O-H
   2366    1    3963    3965  # O-H
   2367    1    3966    3967  # O-H
   2368    1    3966    3968  # O-H
   2369    1    3969    3970  # O-H
   2370    1    3969    3971  # O-H
   2371    1    3972    3973  # O-H
   2372    1    3972    3974  # O-H
   2373    1    3975    3976  # O-H
   2374    1    3975    3977  # O-H
   2375    1    3978    3979  # O-H
   2376    1    3978    3980  # O-H
   2377    1    3981    3982  # O-H
   2378    1    3981    3983  # O-H
   2379    1    3984    3985  # O-H
   2380    1    3984    3986  # O-H
   2381    1    3987    3988  # O-H
   2382    1    3987    3989  # O-H
   2383    1    3990    3991  # O-H
   2384    1    3990    3992  # O-H
   2385    1    3993    3994  # O-H
   2386    1    3993    3995  # O-H
   2387    1    3996    3997  # O-H
   2388    1    3996    3998  # O-H
   2389    1    3999    4000  # O-H
   2390    1    3999    4001  # O-H
   2391    1    4002    4003  # O-H
   2392    1    4002    4004  # O-H
   2393    1    4005    4006  # O-H
   2394    1    4005    4007  # O-H
   2395    1    4008    4009  # O-H
   2396    1    4008    4010  # O-H
   2397    1    4011    4012  # O-H
   2398    1    4011    4013  # O-H
   2399    1    4014    4015  # O-H
   2400    1    4014    4016  # O-H
   2401    1    4017    4018  # O-H
   2402    1    4017    4019  # O-H
   2403    1    4020    4021  # O-H
   2404    1    4020    4022  # O-H
   2405    1    4023    4024  # O-H
   2406    1    4023    4025  # O-H
   2407    1    4026    4027  # O-H
   2408    1    4026    4028  # O-H
   2409    1    4029    4030  # O-H
   2410    1    4029    4031  # O-H
   2411    1    4032    4033  # O-H
   2412    1    4032    4034  # O-H
   2413    1    4035    4036  # O-H
   2414    1    4035    4037  # O-H
   2415    1    4038    4039  # O-H
   2416    1    4038    4040  # O-H
   2417    1    4041    4042  # O-H
   2418    1    4041    4043  # O-H
   2419    1    4044    4045  # O-H
   2420    1    4044    4046  # O-H
   2421    1    4047    4048  # O-H
   2422    1    4047    4049  # O-H
   2423    1    4050    4051  # O-H
   2424    1    4050    4052  # O-H
   2425    1    4053    4054  # O-H
   2426    1    4053    4055  # O-H
   2427    1    4056    4057  # O-H
   2428    1    4056    4058  # O-H
   2429    1    4059    4060  # O-H
   2430    1    4059    4061  # O-H
   2431    1    4062    4063  # O-H
   2432    1    4062    4064  # O-H
   2433    1    4065    4066  # O-H
   2434    1    4065    4067  # O-H
   2435    1    4068    4069  # O-H
   2436    1    4068    4070  # O-H
   2437    1    4071    4072  # O-H
   2438    1    4071    4073  # O-H
   2439    1    4074    4075  # O-H
   2440    1    4074    4076  # O-H
   2441    1    4077    4078  # O-H
   2442    1    4077    4079  # O-H
   2443    1    4080    4081  # O-H
   2444    1    4080    4082  # O-H
   2445    1    4083    4084  # O-H
   2446    1    4083    4085  # O-H
   2447    1    4086    4087  # O-H
   2448    1    4086    4088  # O-H
   2449    1    4089    4090  # O-H
   2450    1    4089    4091  # O-H
   2451    1    4092    4093  # O-H
   2452    1    4092    4094  # O-H
   2453    1    4095    4096  # O-H
   2454    1    4095    4097  # O-H
   2455    1    4098    4099  # O-H
   2456    1    4098    4100  # O-H
   2457    1    4101    4102  # O-H
   2458    1    4101    4103  # O-H
   2459    1    4104    4105  # O-H
   2460    1    4104    4106  # O-H
   2461    1    4107    4108  # O-H
   2462    1    4107    4109  # O-H
   2463    1    4110    4111  # O-H
   2464    1    4110    4112  # O-H
   2465    1    4113    4114  # O-H
   2466    1    4113    4115  # O-H
   2467    1    4116    4117  # O-H
   2468    1    4116    4118  # O-H
   2469    1    4119    4120  # O-H
   2470    1    4119    4121  # O-H
   2471    1    4122    4123  # O-H
   2472    1    4122    4124  # O-H
   2473    1    4125    4126  # O-H
   2474    1    4125    4127  # O-H
   2475    1    4128    4129  # O-H
   2476    1    4128    4130  # O-H
   2477    1    4131    4132  # O-H
   2478    1    4131    4133  # O-H
   2479    1    4134    4135  # O-H
   2480    1    4134    4136  # O-H
   2481    1    4137    4138  # O-H
   2482    1    4137    4139  # O-H
   2483    1    4140    4141  # O-H
   2484    1    4140    4142  # O-H
   2485    1    4143    4144  # O-H
   2486    1    4143    4145  # O-H
   2487    1    4146    4147  # O-H
   2488    1    4146    4148  # O-H
   2489    1    4149    4150  # O-H
   2490    1    4149    4151  # O-H
   2491    1    4152    4153  # O-H
   2492    1    4152    4154  # O-H
   2493    1    4155    4156  # O-H
   2494    1    4155    4157  # O-H
   2495    1    4158    4159  # O-H
   2496    1    4158    4160  # O-H
   2497    1    4161    4162  # O-H
   2498    1    4161    4163  # O-H
   2499    1    4164    4165  # O-H
   2500    1    4164    4166  # O-H
   2501    1    4167    4168  # O-H
   2502    1    4167    4169  # O-H
   2503    1    4170    4171  # O-H
   2504    1    4170    4172  # O-H
   2505    1    4173    4174  # O-H
   2506    1    4173    4175  # O-H
   2507    1    4176    4177  # O-H
   2508    1    4176    4178  # O-H
   2509    1    4179    4180  # O-H
   2510    1    4179    4181  # O-H
   2511    1    4182    4183  # O-H
   2512    1    4182    4184  # O-H
   2513    1    4185    4186  # O-H
   2514    1    4185    4187  # O-H
   2515    1    4188    4189  # O-H
   2516    1    4188    4190  # O-H
   2517    1    4191    4192  # O-H
   2518    1    4191    4193  # O-H
   2519    1    4194    4195  # O-H
   2520    1    4194    4196  # O-H
   2521    1    4197    4198  # O-H
   2522    1    4197    4199  # O-H
   2523    1    4200    4201  # O-H
   2524    1    4200    4202  # O-H
   2525    1    4203    4204  # O-H
   2526    1    4203    4205  # O-H
   2527    1    4206    4207  # O-H
   2528    1    4206    4208  # O-H
   2529    1    4209    4210  # O-H
   2530    1    4209    4211  # O-H
   2531    1    4212    4213  # O-H
   2532    1    4212    4214  # O-H
   2533    1    4215    4216  # O-H
   2534    1    4215    4217  # O-H
   2535    1    4218    4219  # O-H
   2536    1    4218    4220  # O-H
   2537    1    4221    4222  # O-H
   2538    1    4221    4223  # O-H
   2539    1    4224    4225  # O-H
   2540    1    4224    4226  # O-H
   2541    1    4227    4228  # O-H
   2542    1    4227    4229  # O-H
   2543    1    4230    4231  # O-H
   2544    1    4230    4232  # O-H
   2545    1    4233    4234  # O-H
   2546    1    4233    4235  # O-H
   2547    1    4236    4237  # O-H
   2548    1    4236    4238  # O-H
   2549    1    4239    4240  # O-H
   2550    1    4239    4241  # O-H
   2551    1    4242    4243  # O-H
   2552    1    4242    4244  # O-H
   2553    1    4245    4246  # O-H
   2554    1    4245    4247  # O-H
   2555    1    4248    4249  # O-H
   2556    1    4248    4250  # O-H
   2557    1    4251    4252  # O-H
   2558    1    4251    4253  # O-H
   2559    1    4254    4255  # O-H
   2560    1    4254    4256  # O-H
   2561    1    4257    4258  # O-H
   2562    1    4257    4259  # O-H
   2563    1    4260    4261  # O-H
   2564    1    4260    4262  # O-H
   2565    1    4263    4264  # O-H
   2566    1    4263    4265  # O-H
   2567    1    4266    4267  # O-H
   2568    1    4266    4268  # O-H
   2569    1    4269    4270  # O-H
   2570    1    4269    4271  # O-H
   2571    1    4272    4273  # O-H
   2572    1    4272    4274  # O-H
   2573    1    4275    4276  # O-H
   2574    1    4275    4277  # O-H
   2575    1    4278    4279  # O-H
   2576    1    4278    4280  # O-H
   2577    1    4281    4282  # O-H
   2578    1    4281    4283  # O-H
   2579    1    4284    4285  # O-H
   2580    1    4284    4286  # O-H
   2581    1    4287    4288  # O-H
   2582    1    4287    4289  # O-H
   2583    1    4290    4291  # O-H
   2584    1    4290    4292  # O-H
   2585    1    4293    4294  # O-H
   2586    1    4293    4295  # O-H
   2587    1    4296    4297  # O-H
   2588    1    4296    4298  # O-H
   2589    1    4299    4300  # O-H
   2590    1    4299    4301  # O-H
   2591    1    4302    4303  # O-H
   2592    1    4302    4304  # O-H
   2593    1    4305    4306  # O-H
   2594    1    4305    4307  # O-H
   2595    1    4308    4309  # O-H
   2596    1    4308    4310  # O-H
   2597    1    4311    4312  # O-H
   2598    1    4311    4313  # O-H
   2599    1    4314    4315  # O-H
   2600    1    4314    4316  # O-H
   2601    1    4317    4318  # O-H
   2602    1    4317    4319  # O-H
   2603    1    4320    4321  # O-H
   2604    1    4320    4322  # O-H
   2605    1    4323    4324  # O-H
   2606    1    4323    4325  # O-H
   2607    1    4326    4327  # O-H
   2608    1    4326    4328  # O-H
   2609    1    4329    4330  # O-H
   2610    1    4329    4331  # O-H
   2611    1    4332    4333  # O-H
   2612    1    4332    4334  # O-H
   2613    1    4335    4336  # O-H
   2614    1    4335    4337  # O-H
   2615    1    4338    4339  # O-H
   2616    1    4338    4340  # O-H
   2617    1    4341    4342  # O-H
   2618    1    4341    4343  # O-H
   2619    1    4344    4345  # O-H
   2620    1    4344    4346  # O-H
   2621    1    4347    4348  # O-H
   2622    1    4347    4349  # O-H
   2623    1    4350    4351  # O-H
   2624    1    4350    4352  # O-H
   2625    1    4353    4354  # O-H
   2626    1    4353    4355  # O-H
   2627    1    4356    4357  # O-H
   2628    1    4356    4358  # O-H
   2629    1    4359    4360  # O-H
   2630    1    4359    4361  # O-H
   2631    1    4362    4363  # O-H
   2632    1    4362    4364  # O-H
   2633    1    4365    4366  # O-H
   2634    1    4365    4367  # O-H
   2635    1    4368    4369  # O-H
   2636    1    4368    4370  # O-H
   2637    1    4371    4372  # O-H
   2638    1    4371    4373  # O-H
   2639    1    4374    4375  # O-H
   2640    1    4374    4376  # O-H
   2641    1    4377    4378  # O-H
   2642    1    4377    4379  # O-H
   2643    1    4380    4381  # O-H
   2644    1    4380    4382  # O-H
   2645    1    4383    4384  # O-H
   2646    1    4383    4385  # O-H
   2647    1    4386    4387  # O-H
   2648    1    4386    4388  # O-H
   2649    1    4389    4390  # O-H
   2650    1    4389    4391  # O-H
   2651    1    4392    4393  # O-H
   2652    1    4392    4394  # O-H
   2653    1    4395    4396  # O-H
   2654    1    4395    4397  # O-H
   2655    1    4398    4399  # O-H
   2656    1    4398    4400  # O-H
   2657    1    4401    4402  # O-H
   2658    1    4401    4403  # O-H
   2659    1    4404    4405  # O-H
   2660    1    4404    4406  # O-H
   2661    1    4407    4408  # O-H
   2662    1    4407    4409  # O-H
   2663    1    4410    4411  # O-H
   2664    1    4410    4412  # O-H
   2665    1    4413    4414  # O-H
   2666    1    4413    4415  # O-H
   2667    1    4416    4417  # O-H
   2668    1    4416    4418  # O-H
   2669    1    4419    4420  # O-H
   2670    1    4419    4421  # O-H
   2671    1    4422    4423  # O-H
   2672    1    4422    4424  # O-H
   2673    1    4425    4426  # O-H
   2674    1    4425    4427  # O-H
   2675    1    4428    4429  # O-H
   2676    1    4428    4430  # O-H
   2677    1    4431    4432  # O-H
   2678    1    4431    4433  # O-H
   2679    1    4434    4435  # O-H
   2680    1    4434    4436  # O-H
   2681    1    4437    4438  # O-H
   2682    1    4437    4439  # O-H
   2683    1    4440    4441  # O-H
   2684    1    4440    4442  # O-H
   2685    1    4443    4444  # O-H
   2686    1    4443    4445  # O-H
   2687    1    4446    4447  # O-H
   2688    1    4446    4448  # O-H
   2689    1    4449    4450  # O-H
   2690    1    4449    4451  # O-H
   2691    1    4452    4453  # O-H
   2692    1    4452    4454  # O-H
   2693    1    4455    4456  # O-H
   2694    1    4455    4457  # O-H
   2695    1    4458    4459  # O-H
   2696    1    4458    4460  # O-H
   2697    1    4461    4462  # O-H
   2698    1    4461    4463  # O-H
   2699    1    4464    4465  # O-H
   2700    1    4464    4466  # O-H
   2701    1    4467    4468  # O-H
   2702    1    4467    4469  # O-H
   2703    1    4470    4471  # O-H
   2704    1    4470    4472  # O-H
   2705    1    4473    4474  # O-H
   2706    1    4473    4475  # O-H
   2707    1    4476    4477  # O-H
   2708    1    4476    4478  # O-H
   2709    1    4479    4480  # O-H
   2710    1    4479    4481  # O-H
   2711    1    4482    4483  # O-H
   2712    1    4482    4484  # O-H
   2713    1    4485    4486  # O-H
   2714    1    4485    4487  # O-H
   2715    1    4488    4489  # O-H
   2716    1    4488    4490  # O-H
   2717    1    4491    4492  # O-H
   2718    1    4491    4493  # O-H
   2719    1    4494    4495  # O-H
   2720    1    4494    4496  # O-H
   2721    1    4497    4498  # O-H
   2722    1    4497    4499  # O-H
   2723    1    4500    4501  # O-H
   2724    1    4500    4502  # O-H
   2725    1    4503    4504  # O-H
   2726    1    4503    4505  # O-H
   2727    1    4506    4507  # O-H
   2728    1    4506    4508  # O-H
   2729    1    4509    4510  # O-H
   2730    1    4509    4511  # O-H
   2731    1    4512    4513  # O-H
   2732    1    4512    4514  # O-H
   2733    1    4515    4516  # O-H
   2734    1    4515    4517  # O-H
   2735    1    4518    4519  # O-H
   2736    1    4518    4520  # O-H
   2737    1    4521    4522  # O-H
   2738    1    4521    4523  # O-H
   2739    1    4524    4525  # O-H
   2740    1    4524    4526  # O-H
   2741    1    4527    4528  # O-H
   2742    1    4527    4529  # O-H
   2743    1    4530    4531  # O-H
   2744    1    4530    4532  # O-H
   2745    1    4533    4534  # O-H
   2746    1    4533    4535  # O-H
   2747    1    4536    4537  # O-H
   2748    1    4536    4538  # O-H
   2749    1    4539    4540  # O-H
   2750    1    4539    4541  # O-H
   2751    1    4542    4543  # O-H
   2752    1    4542    4544  # O-H
   2753    1    4545    4546  # O-H
   2754    1    4545    4547  # O-H
   2755    1    4548    4549  # O-H
   2756    1    4548    4550  # O-H
   2757    1    4551    4552  # O-H
   2758    1    4551    4553  # O-H
   2759    1    4554    4555  # O-H
   2760    1    4554    4556  # O-H
   2761    1    4557    4558  # O-H
   2762    1    4557    4559  # O-H
   2763    1    4560    4561  # O-H
   2764    1    4560    4562  # O-H
   2765    1    4563    4564  # O-H
   2766    1    4563    4565  # O-H
   2767    1    4566    4567  # O-H
   2768    1    4566    4568  # O-H
   2769    1    4569    4570  # O-H
   2770    1    4569    4571  # O-H
   2771    1    4572    4573  # O-H
   2772    1    4572    4574  # O-H
   2773    1    4575    4576  # O-H
   2774    1    4575    4577  # O-H
   2775    1    4578    4579  # O-H
   2776    1    4578    4580  # O-H
   2777    1    4581    4582  # O-H
   2778    1    4581    4583  # O-H
   2779    1    4584    4585  # O-H
   2780    1    4584    4586  # O-H
   2781    1    4587    4588  # O-H
   2782    1    4587    4589  # O-H
   2783    1    4590    4591  # O-H
   2784    1    4590    4592  # O-H
   2785    1    4593    4594  # O-H
   2786    1    4593    4595  # O-H
   2787    1    4596    4597  # O-H
   2788    1    4596    4598  # O-H
   2789    1    4599    4600  # O-H
   2790    1    4599    4601  # O-H
   2791    1    4602    4603  # O-H
   2792    1    4602    4604  # O-H
   2793    1    4605    4606  # O-H
   2794    1    4605    4607  # O-H
   2795    1    4608    4609  # O-H
   2796    1    4608    4610  # O-H
   2797    1    4611    4612  # O-H
   2798    1    4611    4613  # O-H
   2799    1    4614    4615  # O-H
   2800    1    4614    4616  # O-H
   2801    1    4617    4618  # O-H
   2802    1    4617    4619  # O-H
   2803    1    4620    4621  # O-H
   2804    1    4620    4622  # O-H
   2805    1    4623    4624  # O-H
   2806    1    4623    4625  # O-H
   2807    1    4626    4627  # O-H
   2808    1    4626    4628  # O-H
   2809    1    4629    4630  # O-H
   2810    1    4629    4631  # O-H
   2811    1    4632    4633  # O-H
   2812    1    4632    4634  # O-H
   2813    1    4635    4636  # O-H
   2814    1    4635    4637  # O-H
   2815    1    4638    4639  # O-H
   2816    1    4638    4640  # O-H
   2817    1    4641    4642  # O-H
   2818    1    4641    4643  # O-H
   2819    1    4644    4645  # O-H
   2820    1    4644    4646  # O-H
   2821    1    4647    4648  # O-H
   2822    1    4647    4649  # O-H
   2823    1    4650    4651  # O-H
   2824    1    4650    4652  # O-H
   2825    1    4653    4654  # O-H
   2826    1    4653    4655  # O-H
   2827    1    4656    4657  # O-H
   2828    1    4656    4658  # O-H
   2829    1    4659    4660  # O-H
   2830    1    4659    4661  # O-H
   2831    1    4662    4663  # O-H
   2832    1    4662    4664  # O-H
   2833    1    4665    4666  # O-H
   2834    1    4665    4667  # O-H
   2835    1    4668    4669  # O-H
   2836    1    4668    4670  # O-H
   2837    1    4671    4672  # O-H
   2838    1    4671    4673  # O-H
   2839    1    4674    4675  # O-H
   2840    1    4674    4676  # O-H
   2841    1    4677    4678  # O-H
   2842    1    4677    4679  # O-H
   2843    1    4680    4681  # O-H
   2844    1    4680    4682  # O-H
   2845    1    4683    4684  # O-H
   2846    1    4683    4685  # O-H
   2847    1    4686    4687  # O-H
   2848    1    4686    4688  # O-H
   2849    1    4689    4690  # O-H
   2850    1    4689    4691  # O-H
   2851    1    4692    4693  # O-H
   2852    1    4692    4694  # O-H
   2853    1    4695    4696  # O-H
   2854    1    4695    4697  # O-H
   2855    1    4698    4699  # O-H
   2856    1    4698    4700  # O-H
   2857    1    4701    4702  # O-H
   2858    1    4701    4703  # O-H
   2859    1    4704    4705  # O-H
   2860    1    4704    4706  # O-H
   2861    1    4707    4708  # O-H
   2862    1    4707    4709  # O-H
   2863    1    4710    4711  # O-H
   2864    1    4710    4712  # O-H
   2865    1    4713    4714  # O-H
   2866    1    4713    4715  # O-H
   2867    1    4716    4717  # O-H
   2868    1    4716    4718  # O-H
   2869    1    4719    4720  # O-H
   2870    1    4719    4721  # O-H
   2871    1    4722    4723  # O-H
   2872    1    4722    4724  # O-H
   2873    1    4725    4726  # O-H
   2874    1    4725    4727  # O-H
   2875    1    4728    4729  # O-H
   2876    1    4728    4730  # O-H
   2877    1    4731    4732  # O-H
   2878    1    4731    4733  # O-H
   2879    1    4734    4735  # O-H
   2880    1    4734    4736  # O-H
   2881    1    4737    4738  # O-H
   2882    1    4737    4739  # O-H
   2883    1    4740    4741  # O-H
   2884    1    4740    4742  # O-H
   2885    1    4743    4744  # O-H
   2886    1    4743    4745  # O-H
   2887    1    4746    4747  # O-H
   2888    1    4746    4748  # O-H
   2889    1    4749    4750  # O-H
   2890    1    4749    4751  # O-H
   2891    1    4752    4753  # O-H
   2892    1    4752    4754  # O-H
   2893    1    4755    4756  # O-H
   2894    1    4755    4757  # O-H
   2895    1    4758    4759  # O-H
   2896    1    4758    4760  # O-H
   2897    1    4761    4762  # O-H
   2898    1    4761    4763  # O-H
   2899    1    4764    4765  # O-H
   2900    1    4764    4766  # O-H
   2901    1    4767    4768  # O-H
   2902    1    4767    4769  # O-H
   2903    1    4770    4771  # O-H
   2904    1    4770    4772  # O-H
   2905    1    4773    4774  # O-H
   2906    1    4773    4775  # O-H
   2907    1    4776    4777  # O-H
   2908    1    4776    4778  # O-H
   2909    1    4779    4780  # O-H
   2910    1    4779    4781  # O-H
   2911    1    4782    4783  # O-H
   2912    1    4782    4784  # O-H
   2913    1    4785    4786  # O-H
   2914    1    4785    4787  # O-H
   2915    1    4788    4789  # O-H
   2916    1    4788    4790  # O-H
   2917    1    4791    4792  # O-H
   2918    1    4791    4793  # O-H
   2919    1    4794    4795  # O-H
   2920    1    4794    4796  # O-H
   2921    1    4797    4798  # O-H
   2922    1    4797    4799  # O-H
   2923    1    4800    4801  # O-H
   2924    1    4800    4802  # O-H
   2925    1    4803    4804  # O-H
   2926    1    4803    4805  # O-H
   2927    1    4806    4807  # O-H
   2928    1    4806    4808  # O-H
   2929    1    4809    4810  # O-H
   2930    1    4809    4811  # O-H
   2931    1    4812    4813  # O-H
   2932    1    4812    4814  # O-H
   2933    1    4815    4816  # O-H
   2934    1    4815    4817  # O-H
   2935    1    4818    4819  # O-H
   2936    1    4818    4820  # O-H
   2937    1    4821    4822  # O-H
   2938    1    4821    4823  # O-H
   2939    1    4824    4825  # O-H
   2940    1    4824    4826  # O-H
   2941    1    4827    4828  # O-H
   2942    1    4827    4829  # O-H
   2943    1    4830    4831  # O-H
   2944    1    4830    4832  # O-H
   2945    1    4833    4834  # O-H
   2946    1    4833    4835  # O-H
   2947    1    4836    4837  # O-H
   2948    1    4836    4838  # O-H
   2949    1    4839    4840  # O-H
   2950    1    4839    4841  # O-H
   2951    1    4842    4843  # O-H
   2952    1    4842    4844  # O-H
   2953    1    4845    4846  # O-H
   2954    1    4845    4847  # O-H
   2955    1    4848    4849  # O-H
   2956    1    4848    4850  # O-H
   2957    1    4851    4852  # O-H
   2958    1    4851    4853  # O-H
   2959    1    4854    4855  # O-H
   2960    1    4854    4856  # O-H
   2961    1    4857    4858  # O-H
   2962    1    4857    4859  # O-H
   2963    1    4860    4861  # O-H
   2964    1    4860    4862  # O-H
   2965    1    4863    4864  # O-H
   2966    1    4863    4865  # O-H
   2967    1    4866    4867  # O-H
   2968    1    4866    4868  # O-H
   2969    1    4869    4870  # O-H
   2970    1    4869    4871  # O-H
   2971    1    4872    4873  # O-H
   2972    1    4872    4874  # O-H
   2973    1    4875    4876  # O-H
   2974    1    4875    4877  # O-H
   2975    1    4878    4879  # O-H
   2976    1    4878    4880  # O-H
   2977    1    4881    4882  # O-H
   2978    1    4881    4883  # O-H
   2979    1    4884    4885  # O-H
   2980    1    4884    4886  # O-H
   2981    1    4887    4888  # O-H
   2982    1    4887    4889  # O-H
   2983    1    4890    4891  # O-H
   2984    1    4890    4892  # O-H
   2985    1    4893    4894  # O-H
   2986    1    4893    4895  # O-H
   2987    1    4896    4897  # O-H
   2988    1    4896    4898  # O-H
   2989    1    4899    4900  # O-H
   2990    1    4899    4901  # O-H
   2991    1    4902    4903  # O-H
   2992    1    4902    4904  # O-H
   2993    1    4905    4906  # O-H
   2994    1    4905    4907  # O-H
   2995    1    4908    4909  # O-H
   2996    1    4908    4910  # O-H
   2997    1    4911    4912  # O-H
   2998    1    4911    4913  # O-H
   2999    1    4914    4915  # O-H
   3000    1    4914    4916  # O-H
   3001    1    4917    4918  # O-H
   3002    1    4917    4919  # O-H
   3003    1    4920    4921  # O-H
   3004    1    4920    4922  # O-H
   3005    1    4923    4924  # O-H
   3006    1    4923    4925  # O-H
   3007    1    4926    4927  # O-H
   3008    1    4926    4928  # O-H
   3009    1    4929    4930  # O-H
   3010    1    4929    4931  # O-H
   3011    1    4932    4933  # O-H
   3012    1    4932    4934  # O-H
   3013    1    4935    4936  # O-H
   3014    1    4935    4937  # O-H
   3015    1    4938    4939  # O-H
   3016    1    4938    4940  # O-H
   3017    1    4941    4942  # O-H
   3018    1    4941    4943  # O-H
   3019    1    4944    4945  # O-H
   3020    1    4944    4946  # O-H
   3021    1    4947    4948  # O-H
   3022    1    4947    4949  # O-H
   3023    1    4950    4951  # O-H
   3024    1    4950    4952  # O-H
   3025    1    4953    4954  # O-H
   3026    1    4953    4955  # O-H
   3027    1    4956    4957  # O-H
   3028    1    4956    4958  # O-H
   3029    1    4959    4960  # O-H
   3030    1    4959    4961  # O-H
   3031    1    4962    4963  # O-H
   3032    1    4962    4964  # O-H
   3033    1    4965    4966  # O-H
   3034    1    4965    4967  # O-H
   3035    1    4968    4969  # O-H
   3036    1    4968    4970  # O-H
   3037    1    4971    4972  # O-H
   3038    1    4971    4973  # O-H
   3039    1    4974    4975  # O-H
   3040    1    4974    4976  # O-H
   3041    1    4977    4978  # O-H
   3042    1    4977    4979  # O-H
   3043    1    4980    4981  # O-H
   3044    1    4980    4982  # O-H
   3045    1    4983    4984  # O-H
   3046    1    4983    4985  # O-H
   3047    1    4986    4987  # O-H
   3048    1    4986    4988  # O-H
   3049    1    4989    4990  # O-H
   3050    1    4989    4991  # O-H
   3051    1    4992    4993  # O-H
   3052    1    4992    4994  # O-H
   3053    1    4995    4996  # O-H
   3054    1    4995    4997  # O-H
   3055    1    4998    4999  # O-H
   3056    1    4998    5000  # O-H
   3057    1    5001    5002  # O-H
   3058    1    5001    5003  # O-H
   3059    1    5004    5005  # O-H
   3060    1    5004    5006  # O-H
   3061    1    5007    5008  # O-H
   3062    1    5007    5009  # O-H
   3063    1    5010    5011  # O-H
   3064    1    5010    5012  # O-H
   3065    1    5013    5014  # O-H
   3066    1    5013    5015  # O-H
   3067    1    5016    5017  # O-H
   3068    1    5016    5018  # O-H
   3069    1    5019    5020  # O-H
   3070    1    5019    5021  # O-H
   3071    1    5022    5023  # O-H
   3072    1    5022    5024  # O-H
   3073    1    5025    5026  # O-H
   3074    1    5025    5027  # O-H
   3075    1    5028    5029  # O-H
   3076    1    5028    5030  # O-H
   3077    1    5031    5032  # O-H
   3078    1    5031    5033  # O-H
   3079    1    5034    5035  # O-H
   3080    1    5034    5036  # O-H
   3081    1    5037    5038  # O-H
   3082    1    5037    5039  # O-H
   3083    1    5040    5041  # O-H
   3084    1    5040    5042  # O-H
   3085    1    5043    5044  # O-H
   3086    1    5043    5045  # O-H
   3087    1    5046    5047  # O-H
   3088    1    5046    5048  # O-H
   3089    1    5049    5050  # O-H
   3090    1    5049    5051  # O-H
   3091    1    5052    5053  # O-H
   3092    1    5052    5054  # O-H
   3093    1    5055    5056  # O-H
   3094    1    5055    5057  # O-H
   3095    1    5058    5059  # O-H
   3096    1    5058    5060  # O-H
   3097    1    5061    5062  # O-H
   3098    1    5061    5063  # O-H
   3099    1    5064    5065  # O-H
   3100    1    5064    5066  # O-H
   3101    1    5067    5068  # O-H
   3102    1    5067    5069  # O-H
   3103    1    5070    5071  # O-H
   3104    1    5070    5072  # O-H
   3105    1    5073    5074  # O-H
   3106    1    5073    5075  # O-H
   3107    1    5076    5077  # O-H
   3108    1    5076    5078  # O-H
   3109    1    5079    5080  # O-H
   3110    1    5079    5081  # O-H
   3111    1    5082    5083  # O-H
   3112    1    5082    5084  # O-H
   3113    1    5085    5086  # O-H
   3114    1    5085    5087  # O-H
   3115    1    5088    5089  # O-H
   3116    1    5088    5090  # O-H
   3117    1    5091    5092  # O-H
   3118    1    5091    5093  # O-H
   3119    1    5094    5095  # O-H
   3120    1    5094    5096  # O-H
   3121    1    5097    5098  # O-H
   3122    1    5097    5099  # O-H
   3123    1    5100    5101  # O-H
   3124    1    5100    5102  # O-H
   3125    1    5103    5104  # O-H
   3126    1    5103    5105  # O-H
   3127    1    5106    5107  # O-H
   3128    1    5106    5108  # O-H
   3129    1    5109    5110  # O-H
   3130    1    5109    5111  # O-H
   3131    1    5112    5113  # O-H
   3132    1    5112    5114  # O-H
   3133    1    5115    5116  # O-H
   3134    1    5115    5117  # O-H
   3135    1    5118    5119  # O-H
   3136    1    5118    5120  # O-H
   3137    1    5121    5122  # O-H
   3138    1    5121    5123  # O-H
   3139    1    5124    5125  # O-H
   3140    1    5124    5126  # O-H
   3141    1    5127    5128  # O-H
   3142    1    5127    5129  # O-H
   3143    1    5130    5131  # O-H
   3144    1    5130    5132  # O-H
   3145    1    5133    5134  # O-H
   3146    1    5133    5135  # O-H
   3147    1    5136    5137  # O-H
   3148    1    5136    5138  # O-H
   3149    1    5139    5140  # O-H
   3150    1    5139    5141  # O-H
   3151    1    5142    5143  # O-H
   3152    1    5142    5144  # O-H
   3153    1    5145    5146  # O-H
   3154    1    5145    5147  # O-H
   3155    1    5148    5149  # O-H
   3156    1    5148    5150  # O-H
   3157    1    5151    5152  # O-H
   3158    1    5151    5153  # O-H
   3159    1    5154    5155  # O-H
   3160    1    5154    5156  # O-H
   3161    1    5157    5158  # O-H
   3162    1    5157    5159  # O-H
   3163    1    5160    5161  # O-H
   3164    1    5160    5162  # O-H
   3165    1    5163    5164  # O-H
   3166    1    5163    5165  # O-H
   3167    1    5166    5167  # O-H
   3168    1    5166    5168  # O-H
   3169    1    5169    5170  # O-H
   3170    1    5169    5171  # O-H
   3171    1    5172    5173  # O-H
   3172    1    5172    5174  # O-H
   3173    1    5175    5176  # O-H
   3174    1    5175    5177  # O-H
   3175    1    5178    5179  # O-H
   3176    1    5178    5180  # O-H
   3177    1    5181    5182  # O-H
   3178    1    5181    5183  # O-H
   3179    1    5184    5185  # O-H
   3180    1    5184    5186  # O-H
   3181    1    5187    5188  # O-H
   3182    1    5187    5189  # O-H
   3183    1    5190    5191  # O-H
   3184    1    5190    5192  # O-H
   3185    1    5193    5194  # O-H
   3186    1    5193    5195  # O-H
   3187    1    5196    5197  # O-H
   3188    1    5196    5198  # O-H
   3189    1    5199    5200  # O-H
   3190    1    5199    5201  # O-H
   3191    1    5202    5203  # O-H
   3192    1    5202    5204  # O-H
   3193    1    5205    5206  # O-H
   3194    1    5205    5207  # O-H
   3195    1    5208    5209  # O-H
   3196    1    5208    5210  # O-H
   3197    1    5211    5212  # O-H
   3198    1    5211    5213  # O-H
   3199    1    5214    5215  # O-H
   3200    1    5214    5216  # O-H
   3201    1    5217    5218  # O-H
   3202    1    5217    5219  # O-H
   3203    1    5220    5221  # O-H
   3204    1    5220    5222  # O-H
   3205    1    5223    5224  # O-H
   3206    1    5223    5225  # O-H
   3207    1    5226    5227  # O-H
   3208    1    5226    5228  # O-H
   3209    1    5229    5230  # O-H
   3210    1    5229    5231  # O-H
   3211    1    5232    5233  # O-H
   3212    1    5232    5234  # O-H
   3213    1    5235    5236  # O-H
   3214    1    5235    5237  # O-H
   3215    1    5238    5239  # O-H
   3216    1    5238    5240  # O-H
   3217    1    5241    5242  # O-H
   3218    1    5241    5243  # O-H
   3219    1    5244    5245  # O-H
   3220    1    5244    5246  # O-H
   3221    1    5247    5248  # O-H
   3222    1    5247    5249  # O-H
   3223    1    5250    5251  # O-H
   3224    1    5250    5252  # O-H
   3225    1    5253    5254  # O-H
   3226    1    5253    5255  # O-H
   3227    1    5256    5257  # O-H
   3228    1    5256    5258  # O-H
   3229    1    5259    5260  # O-H
   3230    1    5259    5261  # O-H
   3231    1    5262    5263  # O-H
   3232    1    5262    5264  # O-H
   3233    1    5265    5266  # O-H
   3234    1    5265    5267  # O-H
   3235    1    5268    5269  # O-H
   3236    1    5268    5270  # O-H
   3237    1    5271    5272  # O-H
   3238    1    5271    5273  # O-H
   3239    1    5274    5275  # O-H
   3240    1    5274    5276  # O-H
   3241    1    5277    5278  # O-H
   3242    1    5277    5279  # O-H
   3243    1    5280    5281  # O-H
   3244    1    5280    5282  # O-H
   3245    1    5283    5284  # O-H
   3246    1    5283    5285  # O-H
   3247    1    5286    5287  # O-H
   3248    1    5286    5288  # O-H
   3249    1    5289    5290  # O-H
   3250    1    5289    5291  # O-H
   3251    1    5292    5293  # O-H
   3252    1    5292    5294  # O-H
   3253    1    5295    5296  # O-H
   3254    1    5295    5297  # O-H
   3255    1    5298    5299  # O-H
   3256    1    5298    5300  # O-H
   3257    1    5301    5302  # O-H
   3258    1    5301    5303  # O-H
   3259    1    5304    5305  # O-H
   3260    1    5304    5306  # O-H
   3261    1    5307    5308  # O-H
   3262    1    5307    5309  # O-H
   3263    1    5310    5311  # O-H
   3264    1    5310    5312  # O-H
   3265    1    5313    5314  # O-H
   3266    1    5313    5315  # O-H
   3267    1    5316    5317  # O-H
   3268    1    5316    5318  # O-H
   3269    1    5319    5320  # O-H
   3270    1    5319    5321  # O-H
   3271    1    5322    5323  # O-H
   3272    1    5322    5324  # O-H
   3273    1    5325    5326  # O-H
   3274    1    5325    5327  # O-H
   3275    1    5328    5329  # O-H
   3276    1    5328    5330  # O-H
   3277    1    5331    5332  # O-H
   3278    1    5331    5333  # O-H
   3279    1    5334    5335  # O-H
   3280    1    5334    5336  # O-H
   3281    1    5337    5338  # O-H
   3282    1    5337    5339  # O-H
   3283    1    5340    5341  # O-H
   3284    1    5340    5342  # O-H
   3285    1    5343    5344  # O-H
   3286    1    5343    5345  # O-H
   3287    1    5346    5347  # O-H
   3288    1    5346    5348  # O-H
   3289    1    5349    5350  # O-H
   3290    1    5349    5351  # O-H
   3291    1    5352    5353  # O-H
   3292    1    5352    5354  # O-H
   3293    1    5355    5356  # O-H
   3294    1    5355    5357  # O-H
   3295    1    5358    5359  # O-H
   3296    1    5358    5360  # O-H
   3297    1    5361    5362  # O-H
   3298    1    5361    5363  # O-H
   3299    1    5364    5365  # O-H
   3300    1    5364    5366  # O-H
   3301    1    5367    5368  # O-H
   3302    1    5367    5369  # O-H
   3303    1    5370    5371  # O-H
   3304    1    5370    5372  # O-H
   3305    1    5373    5374  # O-H
   3306    1    5373    5375  # O-H
   3307    1    5376    5377  # O-H
   3308    1    5376    5378  # O-H
   3309    1    5379    5380  # O-H
   3310    1    5379    5381  # O-H
   3311    1    5382    5383  # O-H
   3312    1    5382    5384  # O-H
   3313    1    5385    5386  # O-H
   3314    1    5385    5387  # O-H
   3315    1    5388    5389  # O-H
   3316    1    5388    5390  # O-H
   3317    1    5391    5392  # O-H
   3318    1    5391    5393  # O-H
   3319    1    5394    5395  # O-H
   3320    1    5394    5396  # O-H
   3321    1    5397    5398  # O-H
   3322    1    5397    5399  # O-H
   3323    1    5400    5401  # O-H
   3324    1    5400    5402  # O-H
   3325    1    5403    5404  # O-H
   3326    1    5403    5405  # O-H
   3327    1    5406    5407  # O-H
   3328    1    5406    5408  # O-H
   3329    1    5409    5410  # O-H
   3330    1    5409    5411  # O-H
   3331    1    5412    5413  # O-H
   3332    1    5412    5414  # O-H
   3333    1    5415    5416  # O-H
   3334    1    5415    5417  # O-H
   3335    1    5418    5419  # O-H
   3336    1    5418    5420  # O-H
   3337    1    5421    5422  # O-H
   3338    1    5421    5423  # O-H
   3339    1    5424    5425  # O-H
   3340    1    5424    5426  # O-H
   3341    1    5427    5428  # O-H
   3342    1    5427    5429  # O-H
   3343    1    5430    5431  # O-H
   3344    1    5430    5432  # O-H
   3345    1    5433    5434  # O-H
   3346    1    5433    5435  # O-H
   3347    1    5436    5437  # O-H
   3348    1    5436    5438  # O-H
   3349    1    5439    5440  # O-H
   3350    1    5439    5441  # O-H
   3351    1    5442    5443  # O-H
   3352    1    5442    5444  # O-H
   3353    1    5445    5446  # O-H
   3354    1    5445    5447  # O-H
   3355    1    5448    5449  # O-H
   3356    1    5448    5450  # O-H
   3357    1    5451    5452  # O-H
   3358    1    5451    5453  # O-H
   3359    1    5454    5455  # O-H
   3360    1    5454    5456  # O-H
   3361    1    5457    5458  # O-H
   3362    1    5457    5459  # O-H
   3363    1    5460    5461  # O-H
   3364    1    5460    5462  # O-H
   3365    1    5463    5464  # O-H
   3366    1    5463    5465  # O-H
   3367    1    5466    5467  # O-H
   3368    1    5466    5468  # O-H
   3369    1    5469    5470  # O-H
   3370    1    5469    5471  # O-H
   3371    1    5472    5473  # O-H
   3372    1    5472    5474  # O-H
   3373    1    5475    5476  # O-H
   3374    1    5475    5477  # O-H
   3375    1    5478    5479  # O-H
   3376    1    5478    5480  # O-H
   3377    1    5481    5482  # O-H
   3378    1    5481    5483  # O-H
   3379    1    5484    5485  # O-H
   3380    1    5484    5486  # O-H
   3381    1    5487    5488  # O-H
   3382    1    5487    5489  # O-H
   3383    1    5490    5491  # O-H
   3384    1    5490    5492  # O-H
   3385    1    5493    5494  # O-H
   3386    1    5493    5495  # O-H
   3387    1    5496    5497  # O-H
   3388    1    5496    5498  # O-H
   3389    1    5499    5500  # O-H
   3390    1    5499    5501  # O-H
   3391    1    5502    5503  # O-H
   3392    1    5502    5504  # O-H
   3393    1    5505    5506  # O-H
   3394    1    5505    5507  # O-H
   3395    1    5508    5509  # O-H
   3396    1    5508    5510  # O-H
   3397    1    5511    5512  # O-H
   3398    1    5511    5513  # O-H
   3399    1    5514    5515  # O-H
   3400    1    5514    5516  # O-H
   3401    1    5517    5518  # O-H
   3402    1    5517    5519  # O-H
   3403    1    5520    5521  # O-H
   3404    1    5520    5522  # O-H
   3405    1    5523    5524  # O-H
   3406    1    5523    5525  # O-H
   3407    1    5526    5527  # O-H
   3408    1    5526    5528  # O-H
   3409    1    5529    5530  # O-H
   3410    1    5529    5531  # O-H
   3411    1    5532    5533  # O-H
   3412    1    5532    5534  # O-H
   3413    1    5535    5536  # O-H
   3414    1    5535    5537  # O-H
   3415    1    5538    5539  # O-H
   3416    1    5538    5540  # O-H
   3417    1    5541    5542  # O-H
   3418    1    5541    5543  # O-H
   3419    1    5544    5545  # O-H
   3420    1    5544    5546  # O-H
   3421    1    5547    5548  # O-H
   3422    1    5547    5549  # O-H
   3423    1    5550    5551  # O-H
   3424    1    5550    5552  # O-H
   3425    1    5553    5554  # O-H
   3426    1    5553    5555  # O-H
   3427    1    5556    5557  # O-H
   3428    1    5556    5558  # O-H
   3429    1    5559    5560  # O-H
   3430    1    5559    5561  # O-H
   3431    1    5562    5563  # O-H
   3432    1    5562    5564  # O-H
   3433    1    5565    5566  # O-H
   3434    1    5565    5567  # O-H
   3435    1    5568    5569  # O-H
   3436    1    5568    5570  # O-H
   3437    1    5571    5572  # O-H
   3438    1    5571    5573  # O-H
   3439    1    5574    5575  # O-H
   3440    1    5574    5576  # O-H
   3441    1    5577    5578  # O-H
   3442    1    5577    5579  # O-H
   3443    1    5580    5581  # O-H
   3444    1    5580    5582  # O-H
   3445    1    5583    5584  # O-H
   3446    1    5583    5585  # O-H
   3447    1    5586    5587  # O-H
   3448    1    5586    5588  # O-H
   3449    1    5589    5590  # O-H
   3450    1    5589    5591  # O-H
   3451    1    5592    5593  # O-H
   3452    1    5592    5594  # O-H
   3453    1    5595    5596  # O-H
   3454    1    5595    5597  # O-H
   3455    1    5598    5599  # O-H
   3456    1    5598    5600  # O-H
   3457    1    5601    5602  # O-H
   3458    1    5601    5603  # O-H
   3459    1    5604    5605  # O-H
   3460    1    5604    5606  # O-H
   3461    1    5607    5608  # O-H
   3462    1    5607    5609  # O-H
   3463    1    5610    5611  # O-H
   3464    1    5610    5612  # O-H
   3465    1    5613    5614  # O-H
   3466    1    5613    5615  # O-H
   3467    1    5616    5617  # O-H
   3468    1    5616    5618  # O-H
   3469    1    5619    5620  # O-H
   3470    1    5619    5621  # O-H
   3471    1    5622    5623  # O-H
   3472    1    5622    5624  # O-H
   3473    1    5625    5626  # O-H
   3474    1    5625    5627  # O-H
   3475    1    5628    5629  # O-H
   3476    1    5628    5630  # O-H
   3477    1    5631    5632  # O-H
   3478    1    5631    5633  # O-H
   3479    1    5634    5635  # O-H
   3480    1    5634    5636  # O-H
   3481    1    5637    5638  # O-H
   3482    1    5637    5639  # O-H
   3483    1    5640    5641  # O-H
   3484    1    5640    5642  # O-H
   3485    1    5643    5644  # O-H
   3486    1    5643    5645  # O-H
   3487    1    5646    5647  # O-H
   3488    1    5646    5648  # O-H
   3489    1    5649    5650  # O-H
   3490    1    5649    5651  # O-H
   3491    1    5652    5653  # O-H
   3492    1    5652    5654  # O-H
   3493    1    5655    5656  # O-H
   3494    1    5655    5657  # O-H
   3495    1    5658    5659  # O-H
   3496    1    5658    5660  # O-H
   3497    1    5661    5662  # O-H
   3498    1    5661    5663  # O-H
   3499    1    5664    5665  # O-H
   3500    1    5664    5666  # O-H
   3501    1    5667    5668  # O-H
   3502    1    5667    5669  # O-H
   3503    1    5670    5671  # O-H
   3504    1    5670    5672  # O-H
   3505    1    5673    5674  # O-H
   3506    1    5673    5675  # O-H
   3507    1    5676    5677  # O-H
   3508    1    5676    5678  # O-H
   3509    1    5679    5680  # O-H
   3510    1    5679    5681  # O-H
   3511    1    5682    5683  # O-H
   3512    1    5682    5684  # O-H
   3513    1    5685    5686  # O-H
   3514    1    5685    5687  # O-H
   3515    1    5688    5689  # O-H
   3516    1    5688    5690  # O-H
   3517    1    5691    5692  # O-H
   3518    1    5691    5693  # O-H
   3519    1    5694    5695  # O-H
   3520    1    5694    5696  # O-H
   3521    1    5697    5698  # O-H
   3522    1    5697    5699  # O-H
   3523    1    5700    5701  # O-H
   3524    1    5700    5702  # O-H
   3525    1    5703    5704  # O-H
   3526    1    5703    5705  # O-H
   3527    1    5706    5707  # O-H
   3528    1    5706    5708  # O-H
   3529    1    5709    5710  # O-H
   3530    1    5709    5711  # O-H
   3531    1    5712    5713  # O-H
   3532    1    5712    5714  # O-H
   3533    1    5715    5716  # O-H
   3534    1    5715    5717  # O-H
   3535    1    5718    5719  # O-H
   3536    1    5718    5720  # O-H
   3537    1    5721    5722  # O-H
   3538    1    5721    5723  # O-H
   3539    1    5724    5725  # O-H
   3540    1    5724    5726  # O-H
   3541    1    5727    5728  # O-H
   3542    1    5727    5729  # O-H
   3543    1    5730    5731  # O-H
   3544    1    5730    5732  # O-H
   3545    1    5733    5734  # O-H
   3546    1    5733    5735  # O-H
   3547    1    5736    5737  # O-H
   3548    1    5736    5738  # O-H
   3549    1    5739    5740  # O-H
   3550    1    5739    5741  # O-H
   3551    1    5742    5743  # O-H
   3552    1    5742    5744  # O-H
   3553    1    5745    5746  # O-H
   3554    1    5745    5747  # O-H
   3555    1    5748    5749  # O-H
   3556    1    5748    5750  # O-H
   3557    1    5751    5752  # O-H
   3558    1    5751    5753  # O-H
   3559    1    5754    5755  # O-H
   3560    1    5754    5756  # O-H
   3561    1    5757    5758  # O-H
   3562    1    5757    5759  # O-H
   3563    1    5760    5761  # O-H
   3564    1    5760    5762  # O-H
   3565    1    5763    5764  # O-H
   3566    1    5763    5765  # O-H
   3567    1    5766    5767  # O-H
   3568    1    5766    5768  # O-H
   3569    1    5769    5770  # O-H
   3570    1    5769    5771  # O-H
   3571    1    5772    5773  # O-H
   3572    1    5772    5774  # O-H
   3573    1    5775    5776  # O-H
   3574    1    5775    5777  # O-H
   3575    1    5778    5779  # O-H
   3576    1    5778    5780  # O-H
   3577    1    5781    5782  # O-H
   3578    1    5781    5783  # O-H
   3579    1    5784    5785  # O-H
   3580    1    5784    5786  # O-H
   3581    1    5787    5788  # O-H
   3582    1    5787    5789  # O-H
   3583    1    5790    5791  # O-H
   3584    1    5790    5792  # O-H
   3585    1    5793    5794  # O-H
   3586    1    5793    5795  # O-H
   3587    1    5796    5797  # O-H
   3588    1    5796    5798  # O-H
   3589    1    5799    5800  # O-H
   3590    1    5799    5801  # O-H
   3591    1    5802    5803  # O-H
   3592    1    5802    5804  # O-H
   3593    1    5805    5806  # O-H
   3594    1    5805    5807  # O-H
   3595    1    5808    5809  # O-H
   3596    1    5808    5810  # O-H
   3597    1    5811    5812  # O-H
   3598    1    5811    5813  # O-H
   3599    1    5814    5815  # O-H
   3600    1    5814    5816  # O-H
   3601    1    5817    5818  # O-H
   3602    1    5817    5819  # O-H
   3603    1    5820    5821  # O-H
   3604    1    5820    5822  # O-H
   3605    1    5823    5824  # O-H
   3606    1    5823    5825  # O-H
   3607    1    5826    5827  # O-H
   3608    1    5826    5828  # O-H
   3609    1    5829    5830  # O-H
   3610    1    5829    5831  # O-H
   3611    1    5832    5833  # O-H
   3612    1    5832    5834  # O-H
   3613    1    5835    5836  # O-H
   3614    1    5835    5837  # O-H
   3615    1    5838    5839  # O-H
   3616    1    5838    5840  # O-H
   3617    1    5841    5842  # O-H
   3618    1    5841    5843  # O-H
   3619    1    5844    5845  # O-H
   3620    1    5844    5846  # O-H
   3621    1    5847    5848  # O-H
   3622    1    5847    5849  # O-H
   3623    1    5850    5851  # O-H
   3624    1    5850    5852  # O-H
   3625    1    5853    5854  # O-H
   3626    1    5853    5855  # O-H
   3627    1    5856    5857  # O-H
   3628    1    5856    5858  # O-H
   3629    1    5859    5860  # O-H
   3630    1    5859    5861  # O-H
   3631    1    5862    5863  # O-H
   3632    1    5862    5864  # O-H
   3633    1    5865    5866  # O-H
   3634    1    5865    5867  # O-H
   3635    1    5868    5869  # O-H
   3636    1    5868    5870  # O-H
   3637    1    5871    5872  # O-H
   3638    1    5871    5873  # O-H
   3639    1    5874    5875  # O-H
   3640    1    5874    5876  # O-H
   3641    1    5877    5878  # O-H
   3642    1    5877    5879  # O-H
   3643    1    5880    5881  # O-H
   3644    1    5880    5882  # O-H
   3645    1    5883    5884  # O-H
   3646    1    5883    5885  # O-H
   3647    1    5886    5887  # O-H
   3648    1    5886    5888  # O-H
   3649    1    5889    5890  # O-H
   3650    1    5889    5891  # O-H
   3651    1    5892    5893  # O-H
   3652    1    5892    5894  # O-H
   3653    1    5895    5896  # O-H
   3654    1    5895    5897  # O-H
   3655    1    5898    5899  # O-H
   3656    1    5898    5900  # O-H
   3657    1    5901    5902  # O-H
   3658    1    5901    5903  # O-H
   3659    1    5904    5905  # O-H
   3660    1    5904    5906  # O-H
   3661    1    5907    5908  # O-H
   3662    1    5907    5909  # O-H
   3663    1    5910    5911  # O-H
   3664    1    5910    5912  # O-H
   3665    1    5913    5914  # O-H
   3666    1    5913    5915  # O-H
   3667    1    5916    5917  # O-H
   3668    1    5916    5918  # O-H
   3669    1    5919    5920  # O-H
   3670    1    5919    5921  # O-H
   3671    1    5922    5923  # O-H
   3672    1    5922    5924  # O-H
   3673    1    5925    5926  # O-H
   3674    1    5925    5927  # O-H
   3675    1    5928    5929  # O-H
   3676    1    5928    5930  # O-H
   3677    1    5931    5932  # O-H
   3678    1    5931    5933  # O-H
   3679    1    5934    5935  # O-H
   3680    1    5934    5936  # O-H
   3681    1    5937    5938  # O-H
   3682    1    5937    5939  # O-H
   3683    1    5940    5941  # O-H
   3684    1    5940    5942  # O-H
   3685    1    5943    5944  # O-H
   3686    1    5943    5945  # O-H
   3687    1    5946    5947  # O-H
   3688    1    5946    5948  # O-H
   3689    1    5949    5950  # O-H
   3690    1    5949    5951  # O-H
   3691    1    5952    5953  # O-H
   3692    1    5952    5954  # O-H
   3693    1    5955    5956  # O-H
   3694    1    5955    5957  # O-H
   3695    1    5958    5959  # O-H
   3696    1    5958    5960  # O-H
   3697    1    5961    5962  # O-H
   3698    1    5961    5963  # O-H
   3699    1    5964    5965  # O-H
   3700    1    5964    5966  # O-H
   3701    1    5967    5968  # O-H
   3702    1    5967    5969  # O-H
   3703    1    5970    5971  # O-H
   3704    1    5970    5972  # O-H
   3705    1    5973    5974  # O-H
   3706    1    5973    5975  # O-H
   3707    1    5976    5977  # O-H
   3708    1    5976    5978  # O-H
   3709    1    5979    5980  # O-H
   3710    1    5979    5981  # O-H
   3711    1    5982    5983  # O-H
   3712    1    5982    5984  # O-H
   3713    1    5985    5986  # O-H
   3714    1    5985    5987  # O-H
   3715    1    5988    5989  # O-H
   3716    1    5988    5990  # O-H
   3717    1    5991    5992  # O-H
   3718    1    5991    5993  # O-H
   3719    1    5994    5995  # O-H
   3720    1    5994    5996  # O-H
   3721    1    5997    5998  # O-H
   3722    1    5997    5999  # O-H
   3723    1    6000    6001  # O-H
   3724    1    6000    6002  # O-H
   3725    1    6003    6004  # O-H
   3726    1    6003    6005  # O-H
   3727    1    6006    6007  # O-H
   3728    1    6006    6008  # O-H
   3729    1    6009    6010  # O-H
   3730    1    6009    6011  # O-H
   3731    1    6012    6013  # O-H
   3732    1    6012    6014  # O-H
   3733    1    6015    6016  # O-H
   3734    1    6015    6017  # O-H
   3735    1    6018    6019  # O-H
   3736    1    6018    6020  # O-H
   3737    1    6021    6022  # O-H
   3738    1    6021    6023  # O-H
   3739    1    6024    6025  # O-H
   3740    1    6024    6026  # O-H
   3741    1    6027    6028  # O-H
   3742    1    6027    6029  # O-H
   3743    1    6030    6031  # O-H
   3744    1    6030    6032  # O-H
   3745    1    6033    6034  # O-H
   3746    1    6033    6035  # O-H
   3747    1    6036    6037  # O-H
   3748    1    6036    6038  # O-H
   3749    1    6039    6040  # O-H
   3750    1    6039    6041  # O-H
   3751    1    6042    6043  # O-H
   3752    1    6042    6044  # O-H
   3753    1    6045    6046  # O-H
   3754    1    6045    6047  # O-H
   3755    1    6048    6049  # O-H
   3756    1    6048    6050  # O-H
   3757    1    6051    6052  # O-H
   3758    1    6051    6053  # O-H
   3759    1    6054    6055  # O-H
   3760    1    6054    6056  # O-H
   3761    1    6057    6058  # O-H
   3762    1    6057    6059  # O-H
   3763    1    6060    6061  # O-H
   3764    1    6060    6062  # O-H
   3765    1    6063    6064  # O-H
   3766    1    6063    6065  # O-H
   3767    1    6066    6067  # O-H
   3768    1    6066    6068  # O-H
   3769    1    6069    6070  # O-H
   3770    1    6069    6071  # O-H
   3771    1    6072    6073  # O-H
   3772    1    6072    6074  # O-H
   3773    1    6075    6076  # O-H
   3774    1    6075    6077  # O-H
   3775    1    6078    6079  # O-H
   3776    1    6078    6080  # O-H
   3777    1    6081    6082  # O-H
   3778    1    6081    6083  # O-H
   3779    1    6084    6085  # O-H
   3780    1    6084    6086  # O-H
   3781    1    6087    6088  # O-H
   3782    1    6087    6089  # O-H
   3783    1    6090    6091  # O-H
   3784    1    6090    6092  # O-H
   3785    1    6093    6094  # O-H
   3786    1    6093    6095  # O-H
   3787    1    6096    6097  # O-H
   3788    1    6096    6098  # O-H
   3789    1    6099    6100  # O-H
   3790    1    6099    6101  # O-H
   3791    1    6102    6103  # O-H
   3792    1    6102    6104  # O-H
   3793    1    6105    6106  # O-H
   3794    1    6105    6107  # O-H
   3795    1    6108    6109  # O-H
   3796    1    6108    6110  # O-H
   3797    1    6111    6112  # O-H
   3798    1    6111    6113  # O-H
   3799    1    6114    6115  # O-H
   3800    1    6114    6116  # O-H
   3801    1    6117    6118  # O-H
   3802    1    6117    6119  # O-H
   3803    1    6120    6121  # O-H
   3804    1    6120    6122  # O-H
   3805    1    6123    6124  # O-H
   3806    1    6123    6125  # O-H
   3807    1    6126    6127  # O-H
   3808    1    6126    6128  # O-H
   3809    1    6129    6130  # O-H
   3810    1    6129    6131  # O-H
   3811    1    6132    6133  # O-H
   3812    1    6132    6134  # O-H
   3813    1    6135    6136  # O-H
   3814    1    6135    6137  # O-H
   3815    1    6138    6139  # O-H
   3816    1    6138    6140  # O-H
   3817    1    6141    6142  # O-H
   3818    1    6141    6143  # O-H
   3819    1    6144    6145  # O-H
   3820    1    6144    6146  # O-H
   3821    1    6147    6148  # O-H
   3822    1    6147    6149  # O-H
   3823    1    6150    6151  # O-H
   3824    1    6150    6152  # O-H
   3825    1    6153    6154  # O-H
   3826    1    6153    6155  # O-H
   3827    1    6156    6157  # O-H
   3828    1    6156    6158  # O-H
   3829    1    6159    6160  # O-H
   3830    1    6159    6161  # O-H
   3831    1    6162    6163  # O-H
   3832    1    6162    6164  # O-H
   3833    1    6165    6166  # O-H
   3834    1    6165    6167  # O-H
   3835    1    6168    6169  # O-H
   3836    1    6168    6170  # O-H
   3837    1    6171    6172  # O-H
   3838    1    6171    6173  # O-H
   3839    1    6174    6175  # O-H
   3840    1    6174    6176  # O-H
   3841    1    6177    6178  # O-H
   3842    1    6177    6179  # O-H
   3843    1    6180    6181  # O-H
   3844    1    6180    6182  # O-H
   3845    1    6183    6184  # O-H
   3846    1    6183    6185  # O-H
   3847    1    6186    6187  # O-H
   3848    1    6186    6188  # O-H
   3849    1    6189    6190  # O-H
   3850    1    6189    6191  # O-H
   3851    1    6192    6193  # O-H
   3852    1    6192    6194  # O-H
   3853    1    6195    6196  # O-H
   3854    1    6195    6197  # O-H
   3855    1    6198    6199  # O-H
   3856    1    6198    6200  # O-H
   3857    1    6201    6202  # O-H
   3858    1    6201    6203  # O-H
   3859    1    6204    6205  # O-H
   3860    1    6204    6206  # O-H
   3861    1    6207    6208  # O-H
   3862    1    6207    6209  # O-H
   3863    1    6210    6211  # O-H
   3864    1    6210    6212  # O-H
   3865    1    6213    6214  # O-H
   3866    1    6213    6215  # O-H
   3867    1    6216    6217  # O-H
   3868    1    6216    6218  # O-H
   3869    1    6219    6220  # O-H
   3870    1    6219    6221  # O-H
   3871    1    6222    6223  # O-H
   3872    1    6222    6224  # O-H
   3873    1    6225    6226  # O-H
   3874    1    6225    6227  # O-H
   3875    1    6228    6229  # O-H
   3876    1    6228    6230  # O-H
   3877    1    6231    6232  # O-H
   3878    1    6231    6233  # O-H
   3879    1    6234    6235  # O-H
   3880    1    6234    6236  # O-H
   3881    1    6237    6238  # O-H
   3882    1    6237    6239  # O-H
   3883    1    6240    6241  # O-H
   3884    1    6240    6242  # O-H
   3885    1    6243    6244  # O-H
   3886    1    6243    6245  # O-H
   3887    1    6246    6247  # O-H
   3888    1    6246    6248  # O-H
   3889    1    6249    6250  # O-H
   3890    1    6249    6251  # O-H
   3891    1    6252    6253  # O-H
   3892    1    6252    6254  # O-H
   3893    1    6255    6256  # O-H
   3894    1    6255    6257  # O-H
   3895    1    6258    6259  # O-H
   3896    1    6258    6260  # O-H
   3897    1    6261    6262  # O-H
   3898    1    6261    6263  # O-H
   3899    1    6264    6265  # O-H
   3900    1    6264    6266  # O-H
   3901    1    6267    6268  # O-H
   3902    1    6267    6269  # O-H
   3903    1    6270    6271  # O-H
   3904    1    6270    6272  # O-H
   3905    1    6273    6274  # O-H
   3906    1    6273    6275  # O-H
   3907    1    6276    6277  # O-H
   3908    1    6276    6278  # O-H
   3909    1    6279    6280  # O-H
   3910    1    6279    6281  # O-H
   3911    1    6282    6283  # O-H
   3912    1    6282    6284  # O-H
   3913    1    6285    6286  # O-H
   3914    1    6285    6287  # O-H
   3915    1    6288    6289  # O-H
   3916    1    6288    6290  # O-H
   3917    1    6291    6292  # O-H
   3918    1    6291    6293  # O-H
   3919    1    6294    6295  # O-H
   3920    1    6294    6296  # O-H
   3921    1    6297    6298  # O-H
   3922    1    6297    6299  # O-H
   3923    1    6300    6301  # O-H
   3924    1    6300    6302  # O-H
   3925    1    6303    6304  # O-H
   3926    1    6303    6305  # O-H
   3927    1    6306    6307  # O-H
   3928    1    6306    6308  # O-H
   3929    1    6309    6310  # O-H
   3930    1    6309    6311  # O-H
   3931    1    6312    6313  # O-H
   3932    1    6312    6314  # O-H
   3933    1    6315    6316  # O-H
   3934    1    6315    6317  # O-H
   3935    1    6318    6319  # O-H
   3936    1    6318    6320  # O-H
   3937    1    6321    6322  # O-H
   3938    1    6321    6323  # O-H
   3939    1    6324    6325  # O-H
   3940    1    6324    6326  # O-H
   3941    1    6327    6328  # O-H
   3942    1    6327    6329  # O-H
   3943    1    6330    6331  # O-H
   3944    1    6330    6332  # O-H
   3945    1    6333    6334  # O-H
   3946    1    6333    6335  # O-H
   3947    1    6336    6337  # O-H
   3948    1    6336    6338  # O-H
   3949    1    6339    6340  # O-H
   3950    1    6339    6341  # O-H
   3951    1    6342    6343  # O-H
   3952    1    6342    6344  # O-H
   3953    1    6345    6346  # O-H
   3954    1    6345    6347  # O-H
   3955    1    6348    6349  # O-H
   3956    1    6348    6350  # O-H
   3957    1    6351    6352  # O-H
   3958    1    6351    6353  # O-H
   3959    1    6354    6355  # O-H
   3960    1    6354    6356  # O-H
   3961    1    6357    6358  # O-H
   3962    1    6357    6359  # O-H
   3963    1    6360    6361  # O-H
   3964    1    6360    6362  # O-H
   3965    1    6363    6364  # O-H
   3966    1    6363    6365  # O-H
   3967    1    6366    6367  # O-H
   3968    1    6366    6368  # O-H
   3969    1    6369    6370  # O-H
   3970    1    6369    6371  # O-H
   3971    1    6372    6373  # O-H
   3972    1    6372    6374  # O-H
   3973    1    6375    6376  # O-H
   3974    1    6375    6377  # O-H
   3975    1    6378    6379  # O-H
   3976    1    6378    6380  # O-H
   3977    1    6381    6382  # O-H
   3978    1    6381    6383  # O-H
   3979    1    6384    6385  # O-H
   3980    1    6384    6386  # O-H
   3981    1    6387    6388  # O-H
   3982    1    6387    6389  # O-H
   3983    1    6390    6391  # O-H
   3984    1    6390    6392  # O-H
   3985    1    6393    6394  # O-H
   3986    1    6393    6395  # O-H
   3987    1    6396    6397  # O-H
   3988    1    6396    6398  # O-H
   3989    1    6399    6400  # O-H
   3990    1    6399    6401  # O-H
   3991    1    6402    6403  # O-H
   3992    1    6402    6404  # O-H
   3993    1    6405    6406  # O-H
   3994    1    6405    6407  # O-H
   3995    1    6408    6409  # O-H
   3996    1    6408    6410  # O-H
   3997    1    6411    6412  # O-H
   3998    1    6411    6413  # O-H
   3999    1    6414    6415  # O-H
   4000    1    6414    6416  # O-H
   4001    2    6461    6654  # B-N
   4002    2    6461    6655  # B-N
   4003    2    6461    6769  # B-N
   4004    2    6462    6654  # B-N
   4005    2    6462    6656  # B-N
   4006    2    6462    6657  # B-N
   4007    2    6463    6655  # B-N
   4008    2    6463    6657  # B-N
   4009    2    6463    6658  # B-N
   4010    2    6464    6658  # B-N
   4011    2    6464    6659  # B-N
   4012    2    6464    6785  # B-N
   4013    2    6465    6656  # B-N
   4014    2    6465    6660  # B-N
   4015    2    6465    6661  # B-N
   4016    2    6466    6657  # B-N
   4017    2    6466    6661  # B-N
   4018    2    6466    6662  # B-N
   4019    2    6467    6658  # B-N
   4020    2    6467    6662  # B-N
   4021    2    6467    6663  # B-N
   4022    2    6468    6659  # B-N
   4023    2    6468    6663  # B-N
   4024    2    6468    6664  # B-N
   4025    2    6469    6664  # B-N
   4026    2    6469    6665  # B-N
   4027    2    6469    6799  # B-N
   4028    2    6470    6660  # B-N
   4029    2    6470    6666  # B-N
   4030    2    6470    6667  # B-N
   4031    2    6471    6661  # B-N
   4032    2    6471    6667  # B-N
   4033    2    6471    6668  # B-N
   4034    2    6472    6662  # B-N
   4035    2    6472    6668  # B-N
   4036    2    6472    6669  # B-N
   4037    2    6473    6663  # B-N
   4038    2    6473    6669  # B-N
   4039    2    6473    6670  # B-N
   4040    2    6474    6664  # B-N
   4041    2    6474    6670  # B-N
   4042    2    6474    6671  # B-N
   4043    2    6475    6665  # B-N
   4044    2    6475    6671  # B-N
   4045    2    6475    6672  # B-N
   4046    2    6476    6672  # B-N
   4047    2    6476    6673  # B-N
   4048    2    6476    6811  # B-N
   4049    2    6477    6666  # B-N
   4050    2    6477    6674  # B-N
   4051    2    6477    6675  # B-N
   4052    2    6478    6667  # B-N
   4053    2    6478    6675  # B-N
   4054    2    6478    6676  # B-N
   4055    2    6479    6668  # B-N
   4056    2    6479    6676  # B-N
   4057    2    6479    6677  # B-N
   4058    2    6480    6669  # B-N
   4059    2    6480    6677  # B-N
   4060    2    6480    6678  # B-N
   4061    2    6481    6670  # B-N
   4062    2    6481    6678  # B-N
   4063    2    6481    6679  # B-N
   4064    2    6482    6671  # B-N
   4065    2    6482    6679  # B-N
   4066    2    6482    6680  # B-N
   4067    2    6483    6672  # B-N
   4068    2    6483    6680  # B-N
   4069    2    6483    6681  # B-N
   4070    2    6484    6673  # B-N
   4071    2    6484    6681  # B-N
   4072    2    6484    6682  # B-N
   4073    2    6485    6682  # B-N
   4074    2    6485    6683  # B-N
   4075    2    6485    6821  # B-N
   4076    2    6486    6674  # B-N
   4077    2    6486    6684  # B-N
   4078    2    6486    6685  # B-N
   4079    2    6487    6675  # B-N
   4080    2    6487    6685  # B-N
   4081    2    6487    6686  # B-N
   4082    2    6488    6676  # B-N
   4083    2    6488    6686  # B-N
   4084    2    6488    6687  # B-N
   4085    2    6489    6677  # B-N
   4086    2    6489    6687  # B-N
   4087    2    6489    6688  # B-N
   4088    2    6490    6678  # B-N
   4089    2    6490    6688  # B-N
   4090    2    6490    6689  # B-N
   4091    2    6491    6679  # B-N
   4092    2    6491    6689  # B-N
   4093    2    6491    6690  # B-N
   4094    2    6492    6680  # B-N
   4095    2    6492    6690  # B-N
   4096    2    6492    6691  # B-N
   4097    2    6493    6681  # B-N
   4098    2    6493    6691  # B-N
   4099    2    6493    6692  # B-N
   4100    2    6494    6682  # B-N
   4101    2    6494    6692  # B-N
   4102    2    6494    6693  # B-N
   4103    2    6495    6683  # B-N
   4104    2    6495    6693  # B-N
   4105    2    6495    6694  # B-N
   4106    2    6496    6694  # B-N
   4107    2    6496    6695  # B-N
   4108    2    6496    6829  # B-N
   4109    2    6497    6684  # B-N
   4110    2    6497    6696  # B-N
   4111    2    6497    6697  # B-N
   4112    2    6498    6685  # B-N
   4113    2    6498    6697  # B-N
   4114    2    6498    6698  # B-N
   4115    2    6499    6686  # B-N
   4116    2    6499    6698  # B-N
   4117    2    6499    6699  # B-N
   4118    2    6500    6687  # B-N
   4119    2    6500    6699  # B-N
   4120    2    6500    6700  # B-N
   4121    2    6501    6688  # B-N
   4122    2    6501    6700  # B-N
   4123    2    6501    6701  # B-N
   4124    2    6502    6689  # B-N
   4125    2    6502    6701  # B-N
   4126    2    6503    6690  # B-N
   4127    2    6503    6702  # B-N
   4128    2    6504    6691  # B-N
   4129    2    6504    6702  # B-N
   4130    2    6504    6703  # B-N
   4131    2    6505    6692  # B-N
   4132    2    6505    6703  # B-N
   4133    2    6505    6704  # B-N
   4134    2    6506    6693  # B-N
   4135    2    6506    6704  # B-N
   4136    2    6506    6705  # B-N
   4137    2    6507    6694  # B-N
   4138    2    6507    6705  # B-N
   4139    2    6507    6706  # B-N
   4140    2    6508    6695  # B-N
   4141    2    6508    6706  # B-N
   4142    2    6508    6707  # B-N
   4143    2    6509    6707  # B-N
   4144    2    6509    6708  # B-N
   4145    2    6509    6835  # B-N
   4146    2    6510    6696  # B-N
   4147    2    6510    6709  # B-N
   4148    2    6510    6710  # B-N
   4149    2    6511    6697  # B-N
   4150    2    6511    6710  # B-N
   4151    2    6511    6711  # B-N
   4152    2    6512    6698  # B-N
   4153    2    6512    6711  # B-N
   4154    2    6512    6712  # B-N
   4155    2    6513    6699  # B-N
   4156    2    6513    6712  # B-N
   4157    2    6513    6713  # B-N
   4158    2    6514    6700  # B-N
   4159    2    6514    6713  # B-N
   4160    2    6514    6714  # B-N
   4161    2    6515    6701  # B-N
   4162    2    6515    6714  # B-N
   4163    3    6515    6848  # B-HB
   4164    2    6516    6702  # B-N
   4165    2    6516    6715  # B-N
   4166    3    6516    6849  # B-HB
   4167    2    6517    6703  # B-N
   4168    2    6517    6715  # B-N
   4169    2    6517    6716  # B-N
   4170    2    6518    6704  # B-N
   4171    2    6518    6716  # B-N
   4172    2    6518    6717  # B-N
   4173    2    6519    6705  # B-N
   4174    2    6519    6717  # B-N
   4175    2    6519    6718  # B-N
   4176    2    6520    6706  # B-N
   4177    2    6520    6718  # B-N
   4178    2    6520    6719  # B-N
   4179    2    6521    6707  # B-N
   4180    2    6521    6719  # B-N
   4181    2    6521    6720  # B-N
   4182    2    6522    6708  # B-N
   4183    2    6522    6720  # B-N
   4184    2    6522    6721  # B-N
   4185    2    6523    6721  # B-N
   4186    2    6523    6722  # B-N
   4187    2    6523    6839  # B-N
   4188    2    6524    6709  # B-N
   4189    2    6524    6723  # B-N
   4190    2    6524    6724  # B-N
   4191    2    6525    6710  # B-N
   4192    2    6525    6724  # B-N
   4193    2    6525    6725  # B-N
   4194    2    6526    6711  # B-N
   4195    2    6526    6725  # B-N
   4196    2    6526    6726  # B-N
   4197    2    6527    6712  # B-N
   4198    2    6527    6726  # B-N
   4199    2    6527    6727  # B-N
   4200    2    6528    6713  # B-N
   4201    2    6528    6727  # B-N
   4202    2    6528    6728  # B-N
   4203    2    6529    6714  # B-N
   4204    2    6529    6728  # B-N
   4205    3    6529    6847  # B-HB
   4206    2    6530    6715  # B-N
   4207    2    6530    6729  # B-N
   4208    3    6530    6850  # B-HB
   4209    2    6531    6716  # B-N
   4210    2    6531    6729  # B-N
   4211    2    6531    6730  # B-N
   4212    2    6532    6717  # B-N
   4213    2    6532    6730  # B-N
   4214    2    6532    6731  # B-N
   4215    2    6533    6718  # B-N
   4216    2    6533    6731  # B-N
   4217    2    6533    6732  # B-N
   4218    2    6534    6719  # B-N
   4219    2    6534    6732  # B-N
   4220    2    6534    6733  # B-N
   4221    2    6535    6720  # B-N
   4222    2    6535    6733  # B-N
   4223    2    6535    6734  # B-N
   4224    2    6536    6721  # B-N
   4225    2    6536    6734  # B-N
   4226    2    6536    6735  # B-N
   4227    2    6537    6654  # B-N
   4228    2    6537    6722  # B-N
   4229    2    6537    6735  # B-N
   4230    2    6538    6723  # B-N
   4231    2    6538    6736  # B-N
   4232    2    6538    6737  # B-N
   4233    2    6539    6724  # B-N
   4234    2    6539    6737  # B-N
   4235    2    6539    6738  # B-N
   4236    2    6540    6725  # B-N
   4237    2    6540    6738  # B-N
   4238    2    6540    6739  # B-N
   4239    2    6541    6726  # B-N
   4240    2    6541    6739  # B-N
   4241    2    6541    6740  # B-N
   4242    2    6542    6727  # B-N
   4243    2    6542    6740  # B-N
   4244    2    6542    6741  # B-N
   4245    2    6543    6728  # B-N
   4246    2    6543    6741  # B-N
   4247    3    6543    6846  # B-HB
   4248    2    6544    6729  # B-N
   4249    2    6544    6742  # B-N
   4250    3    6544    6851  # B-HB
   4251    2    6545    6730  # B-N
   4252    2    6545    6742  # B-N
   4253    2    6545    6743  # B-N
   4254    2    6546    6731  # B-N
   4255    2    6546    6743  # B-N
   4256    2    6546    6744  # B-N
   4257    2    6547    6732  # B-N
   4258    2    6547    6744  # B-N
   4259    2    6547    6745  # B-N
   4260    2    6548    6733  # B-N
   4261    2    6548    6745  # B-N
   4262    2    6548    6746  # B-N
   4263    2    6549    6734  # B-N
   4264    2    6549    6746  # B-N
   4265    2    6549    6747  # B-N
   4266    2    6550    6656  # B-N
   4267    2    6550    6735  # B-N
   4268    2    6550    6747  # B-N
   4269    2    6551    6736  # B-N
   4270    2    6551    6748  # B-N
   4271    2    6551    6749  # B-N
   4272    2    6552    6737  # B-N
   4273    2    6552    6749  # B-N
   4274    2    6552    6750  # B-N
   4275    2    6553    6738  # B-N
   4276    2    6553    6750  # B-N
   4277    2    6553    6751  # B-N
   4278    2    6554    6739  # B-N
   4279    2    6554    6751  # B-N
   4280    2    6554    6752  # B-N
   4281    2    6555    6740  # B-N
   4282    2    6555    6752  # B-N
   4283    2    6555    6753  # B-N
   4284    2    6556    6741  # B-N
   4285    2    6556    6753  # B-N
   4286    3    6556    6845  # B-HB
   4287    2    6557    6742  # B-N
   4288    2    6557    6754  # B-N
   4289    3    6557    6852  # B-HB
   4290    2    6558    6743  # B-N
   4291    2    6558    6754  # B-N
   4292    2    6558    6755  # B-N
   4293    2    6559    6744  # B-N
   4294    2    6559    6755  # B-N
   4295    2    6559    6756  # B-N
   4296    2    6560    6745  # B-N
   4297    2    6560    6756  # B-N
   4298    2    6560    6757  # B-N
   4299    2    6561    6746  # B-N
   4300    2    6561    6757  # B-N
   4301    2    6561    6758  # B-N
   4302    2    6562    6660  # B-N
   4303    2    6562    6747  # B-N
   4304    2    6562    6758  # B-N
   4305    2    6563    6748  # B-N
   4306    2    6563    6759  # B-N
   4307    2    6563    6760  # B-N
   4308    2    6564    6749  # B-N
   4309    2    6564    6760  # B-N
   4310    2    6564    6761  # B-N
   4311    2    6565    6750  # B-N
   4312    2    6565    6761  # B-N
   4313    2    6565    6762  # B-N
   4314    2    6566    6751  # B-N
   4315    2    6566    6762  # B-N
   4316    2    6566    6763  # B-N
   4317    2    6567    6752  # B-N
   4318    2    6567    6763  # B-N
   4319    2    6567    6764  # B-N
   4320    2    6568    6753  # B-N
   4321    2    6568    6764  # B-N
   4322    2    6569    6754  # B-N
   4323    2    6569    6765  # B-N
   4324    2    6570    6755  # B-N
   4325    2    6570    6765  # B-N
   4326    2    6570    6766  # B-N
   4327    2    6571    6756  # B-N
   4328    2    6571    6766  # B-N
   4329    2    6571    6767  # B-N
   4330    2    6572    6757  # B-N
   4331    2    6572    6767  # B-N
   4332    2    6572    6768  # B-N
   4333    2    6573    6666  # B-N
   4334    2    6573    6758  # B-N
   4335    2    6573    6768  # B-N
   4336    2    6574    6759  # B-N
   4337    2    6574    6769  # B-N
   4338    2    6574    6770  # B-N
   4339    2    6575    6760  # B-N
   4340    2    6575    6770  # B-N
   4341    2    6575    6771  # B-N
   4342    2    6576    6761  # B-N
   4343    2    6576    6771  # B-N
   4344    2    6576    6772  # B-N
   4345    2    6577    6762  # B-N
   4346    2    6577    6772  # B-N
   4347    2    6577    6773  # B-N
   4348    2    6578    6763  # B-N
   4349    2    6578    6773  # B-N
   4350    2    6578    6774  # B-N
   4351    2    6579    6764  # B-N
   4352    2    6579    6774  # B-N
   4353    2    6579    6775  # B-N
   4354    2    6580    6775  # B-N
   4355    2    6580    6776  # B-N
   4356    2    6581    6776  # B-N
   4357    2    6581    6777  # B-N
   4358    3    6581    6844  # B-HB
   4359    2    6582    6777  # B-N
   4360    2    6582    6778  # B-N
   4361    3    6582    6843  # B-HB
   4362    2    6583    6778  # B-N
   4363    2    6583    6779  # B-N
   4364    3    6583    6842  # B-HB
   4365    2    6584    6779  # B-N
   4366    2    6584    6780  # B-N
   4367    3    6584    6841  # B-HB
   4368    2    6585    6780  # B-N
   4369    2    6585    6781  # B-N
   4370    2    6586    6765  # B-N
   4371    2    6586    6781  # B-N
   4372    2    6586    6782  # B-N
   4373    2    6587    6766  # B-N
   4374    2    6587    6782  # B-N
   4375    2    6587    6783  # B-N
   4376    2    6588    6767  # B-N
   4377    2    6588    6783  # B-N
   4378    2    6588    6784  # B-N
   4379    2    6589    6674  # B-N
   4380    2    6589    6768  # B-N
   4381    2    6589    6784  # B-N
   4382    2    6590    6655  # B-N
   4383    2    6590    6770  # B-N
   4384    2    6590    6785  # B-N
   4385    2    6591    6771  # B-N
   4386    2    6591    6785  # B-N
   4387    2    6591    6786  # B-N
   4388    2    6592    6772  # B-N
   4389    2    6592    6786  # B-N
   4390    2    6592    6787  # B-N
   4391    2    6593    6773  # B-N
   4392    2    6593    6787  # B-N
   4393    2    6593    6788  # B-N
   4394    2    6594    6774  # B-N
   4395    2    6594    6788  # B-N
   4396    2    6594    6789  # B-N
   4397    2    6595    6775  # B-N
   4398    2    6595    6789  # B-N
   4399    2    6595    6790  # B-N
   4400    2    6596    6776  # B-N
   4401    2    6596    6790  # B-N
   4402    2    6596    6791  # B-N
   4403    2    6597    6777  # B-N
   4404    2    6597    6791  # B-N
   4405    2    6597    6792  # B-N
   4406    2    6598    6778  # B-N
   4407    2    6598    6792  # B-N
   4408    2    6598    6793  # B-N
   4409    2    6599    6779  # B-N
   4410    2    6599    6793  # B-N
   4411    2    6599    6794  # B-N
   4412    2    6600    6780  # B-N
   4413    2    6600    6794  # B-N
   4414    2    6600    6795  # B-N
   4415    2    6601    6781  # B-N
   4416    2    6601    6795  # B-N
   4417    2    6601    6796  # B-N
   4418    2    6602    6782  # B-N
   4419    2    6602    6796  # B-N
   4420    2    6602    6797  # B-N
   4421    2    6603    6783  # B-N
   4422    2    6603    6797  # B-N
   4423    2    6603    6798  # B-N
   4424    2    6604    6684  # B-N
   4425    2    6604    6784  # B-N
   4426    2    6604    6798  # B-N
   4427    2    6605    6659  # B-N
   4428    2    6605    6786  # B-N
   4429    2    6605    6799  # B-N
   4430    2    6606    6787  # B-N
   4431    2    6606    6799  # B-N
   4432    2    6606    6800  # B-N
   4433    2    6607    6788  # B-N
   4434    2    6607    6800  # B-N
   4435    2    6607    6801  # B-N
   4436    2    6608    6789  # B-N
   4437    2    6608    6801  # B-N
   4438    2    6608    6802  # B-N
   4439    2    6609    6790  # B-N
   4440    2    6609    6802  # B-N
   4441    2    6609    6803  # B-N
   4442    2    6610    6791  # B-N
   4443    2    6610    6803  # B-N
   4444    2    6610    6804  # B-N
   4445    2    6611    6792  # B-N
   4446    2    6611    6804  # B-N
   4447    2    6611    6805  # B-N
   4448    2    6612    6793  # B-N
   4449    2    6612    6805  # B-N
   4450    2    6612    6806  # B-N
   4451    2    6613    6794  # B-N
   4452    2    6613    6806  # B-N
   4453    2    6613    6807  # B-N
   4454    2    6614    6795  # B-N
   4455    2    6614    6807  # B-N
   4456    2    6614    6808  # B-N
   4457    2    6615    6796  # B-N
   4458    2    6615    6808  # B-N
   4459    2    6615    6809  # B-N
   4460    2    6616    6797  # B-N
   4461    2    6616    6809  # B-N
   4462    2    6616    6810  # B-N
   4463    2    6617    6696  # B-N
   4464    2    6617    6798  # B-N
   4465    2    6617    6810  # B-N
   4466    2    6618    6665  # B-N
   4467    2    6618    6800  # B-N
   4468    2    6618    6811  # B-N
   4469    2    6619    6801  # B-N
   4470    2    6619    6811  # B-N
   4471    2    6619    6812  # B-N
   4472    2    6620    6802  # B-N
   4473    2    6620    6812  # B-N
   4474    2    6620    6813  # B-N
   4475    2    6621    6803  # B-N
   4476    2    6621    6813  # B-N
   4477    2    6621    6814  # B-N
   4478    2    6622    6804  # B-N
   4479    2    6622    6814  # B-N
   4480    2    6622    6815  # B-N
   4481    2    6623    6805  # B-N
   4482    2    6623    6815  # B-N
   4483    2    6623    6816  # B-N
   4484    2    6624    6806  # B-N
   4485    2    6624    6816  # B-N
   4486    2    6624    6817  # B-N
   4487    2    6625    6807  # B-N
   4488    2    6625    6817  # B-N
   4489    2    6625    6818  # B-N
   4490    2    6626    6808  # B-N
   4491    2    6626    6818  # B-N
   4492    2    6626    6819  # B-N
   4493    2    6627    6809  # B-N
   4494    2    6627    6819  # B-N
   4495    2    6627    6820  # B-N
   4496    2    6628    6709  # B-N
   4497    2    6628    6810  # B-N
   4498    2    6628    6820  # B-N
   4499    2    6629    6673  # B-N
   4500    2    6629    6812  # B-N
   4501    2    6629    6821  # B-N
   4502    2    6630    6813  # B-N
   4503    2    6630    6821  # B-N
   4504    2    6630    6822  # B-N
   4505    2    6631    6814  # B-N
   4506    2    6631    6822  # B-N
   4507    2    6631    6823  # B-N
   4508    2    6632    6815  # B-N
   4509    2    6632    6823  # B-N
   4510    2    6632    6824  # B-N
   4511    2    6633    6816  # B-N
   4512    2    6633    6824  # B-N
   4513    2    6633    6825  # B-N
   4514    2    6634    6817  # B-N
   4515    2    6634    6825  # B-N
   4516    2    6634    6826  # B-N
   4517    2    6635    6818  # B-N
   4518    2    6635    6826  # B-N
   4519    2    6635    6827  # B-N
   4520    2    6636    6819  # B-N
   4521    2    6636    6827  # B-N
   4522    2    6636    6828  # B-N
   4523    2    6637    6723  # B-N
   4524    2    6637    6820  # B-N
   4525    2    6637    6828  # B-N
   4526    2    6638    6683  # B-N
   4527    2    6638    6822  # B-N
   4528    2    6638    6829  # B-N
   4529    2    6639    6823  # B-N
   4530    2    6639    6829  # B-N
   4531    2    6639    6830  # B-N
   4532    2    6640    6824  # B-N
   4533    2    6640    6830  # B-N
   4534    2    6640    6831  # B-N
   4535    2    6641    6825  # B-N
   4536    2    6641    6831  # B-N
   4537    2    6641    6832  # B-N
   4538    2    6642    6826  # B-N
   4539    2    6642    6832  # B-N
   4540    2    6642    6833  # B-N
   4541    2    6643    6827  # B-N
   4542    2    6643    6833  # B-N
   4543    2    6643    6834  # B-N
   4544    2    6644    6736  # B-N
   4545    2    6644    6828  # B-N
   4546    2    6644    6834  # B-N
   4547    2    6645    6695  # B-N
   4548    2    6645    6830  # B-N
   4549    2    6645    6835  # B-N
   4550    2    6646    6831  # B-N
   4551    2    6646    6835  # B-N
   4552    2    6646    6836  # B-N
   4553    2    6647    6832  # B-N
   4554    2    6647    6836  # B-N
   4555    2    6647    6837  # B-N
   4556    2    6648    6833  # B-N
   4557    2    6648    6837  # B-N
   4558    2    6648    6838  # B-N
   4559    2    6649    6748  # B-N
   4560    2    6649    6834  # B-N
   4561    2    6649    6838  # B-N
   4562    2    6650    6708  # B-N
   4563    2    6650    6836  # B-N
   4564    2    6650    6839  # B-N
   4565    2    6651    6837  # B-N
   4566    2    6651    6839  # B-N
   4567    2    6651    6840  # B-N
   4568    2    6652    6759  # B-N
   4569    2    6652    6838  # B-N
   4570    2    6652    6840  # B-N
   4571    2    6653    6722  # B-N
   4572    2    6653    6769  # B-N
   4573    2    6653    6840  # B-N
   4574    1    6853    6854  # O-H
   4575    1    6853    6855  # O-H
   4576    1    6856    6857  # O-H
   4577    1    6856    6858  # O-H
   4578    1    6859    6860  # O-H
   4579    1    6859    6861  # O-H
   4580    1    6862    6863  # O-H
   4581    1    6862    6864  # O-H
   4582    1    6865    6866  # O-H
   4583    1    6865    6867  # O-H
   4584    1    6868    6869  # O-H
   4585    1    6868    6870  # O-H
   4586    1    6871    6872  # O-H
   4587    1    6871    6873  # O-H
   4588    1    6874    6875  # O-H
   4589    1    6874    6876  # O-H
   4590    1    6877    6878  # O-H
   4591    1    6877    6879  # O-H
   4592    1    6880    6881  # O-H
   4593    1    6880    6882  # O-H
   4594    1    6883    6884  # O-H
   4595    1    6883    6885  # O-H
   4596    1    6886    6887  # O-H
   4597    1    6886    6888  # O-H
   4598    1    6889    6890  # O-H
   4599    1    6889    6891  # O-H
   4600    1    6892    6893  # O-H
   4601    1    6892    6894  # O-H
   4602    1    6895    6896  # O-H
   4603    1    6895    6897  # O-H
   4604    1    6898    6899  # O-H
   4605    1    6898    6900  # O-H
   4606    1    6901    6902  # O-H
   4607    1    6901    6903  # O-H
   4608    1    6904    6905  # O-H
   4609    1    6904    6906  # O-H
   4610    1    6907    6908  # O-H
   4611    1    6907    6909  # O-H
   4612    1    6910    6911  # O-H
   4613    1    6910    6912  # O-H
   4614    1    6913    6914  # O-H
   4615    1    6913    6915  # O-H
   4616    1    6916    6917  # O-H
   4617    1    6916    6918  # O-H
   4618    1    6919    6920  # O-H
   4619    1    6919    6921  # O-H
   4620    1    6922    6923  # O-H
   4621    1    6922    6924  # O-H
   4622    1    6925    6926  # O-H
   4623    1    6925    6927  # O-H
   4624    1    6928    6929  # O-H
   4625    1    6928    6930  # O-H
   4626    1    6931    6932  # O-H
   4627    1    6931    6933  # O-H
   4628    1    6934    6935  # O-H
   4629    1    6934    6936  # O-H
   4630    1    6937    6938  # O-H
   4631    1    6937    6939  # O-H
   4632    1    6940    6941  # O-H
   4633    1    6940    6942  # O-H
   4634    1    6943    6944  # O-H
   4635    1    6943    6945  # O-H
   4636    1    6946    6947  # O-H
   4637    1    6946    6948  # O-H
   4638    1    6949    6950  # O-H
   4639    1    6949    6951  # O-H
   4640    1    6952    6953  # O-H
   4641    1    6952    6954  # O-H
   4642    1    6955    6956  # O-H
   4643    1    6955    6957  # O-H
   4644    1    6958    6959  # O-H
   4645    1    6958    6960  # O-H
   4646    1    6961    6962  # O-H
   4647    1    6961    6963  # O-H
   4648    1    6964    6965  # O-H
   4649    1    6964    6966  # O-H
   4650    1    6967    6968  # O-H
   4651    1    6967    6969  # O-H
   4652    1    6970    6971  # O-H
   4653    1    6970    6972  # O-H
   4654    1    6973    6974  # O-H
   4655    1    6973    6975  # O-H
   4656    1    6976    6977  # O-H
   4657    1    6976    6978  # O-H
   4658    1    6979    6980  # O-H
   4659    1    6979    6981  # O-H
   4660    1    6982    6983  # O-H
   4661    1    6982    6984  # O-H
   4662    1    6985    6986  # O-H
   4663    1    6985    6987  # O-H
   4664    1    6988    6989  # O-H
   4665    1    6988    6990  # O-H
   4666    1    6991    6992  # O-H
   4667    1    6991    6993  # O-H
   4668    1    6994    6995  # O-H
   4669    1    6994    6996  # O-H
   4670    1    6997    6998  # O-H
   4671    1    6997    6999  # O-H
   4672    1    7000    7001  # O-H
   4673    1    7000    7002  # O-H
   4674    1    7003    7004  # O-H
   4675    1    7003    7005  # O-H
   4676    1    7006    7007  # O-H
   4677    1    7006    7008  # O-H
   4678    1    7009    7010  # O-H
   4679    1    7009    7011  # O-H
   4680    1    7012    7013  # O-H
   4681    1    7012    7014  # O-H
   4682    1    7015    7016  # O-H
   4683    1    7015    7017  # O-H
   4684    1    7018    7019  # O-H
   4685    1    7018    7020  # O-H
   4686    1    7021    7022  # O-H
   4687    1    7021    7023  # O-H
   4688    1    7024    7025  # O-H
   4689    1    7024    7026  # O-H
   4690    1    7027    7028  # O-H
   4691    1    7027    7029  # O-H
   4692    1    7030    7031  # O-H
   4693    1    7030    7032  # O-H
   4694    1    7033    7034  # O-H
   4695    1    7033    7035  # O-H
   4696    1    7036    7037  # O-H
   4697    1    7036    7038  # O-H
   4698    1    7039    7040  # O-H
   4699    1    7039    7041  # O-H
   4700    1    7042    7043  # O-H
   4701    1    7042    7044  # O-H
   4702    1    7045    7046  # O-H
   4703    1    7045    7047  # O-H
   4704    1    7048    7049  # O-H
   4705    1    7048    7050  # O-H
   4706    1    7051    7052  # O-H
   4707    1    7051    7053  # O-H
   4708    1    7054    7055  # O-H
   4709    1    7054    7056  # O-H
   4710    1    7057    7058  # O-H
   4711    1    7057    7059  # O-H
   4712    1    7060    7061  # O-H
   4713    1    7060    7062  # O-H
   4714    1    7063    7064  # O-H
   4715    1    7063    7065  # O-H
   4716    1    7066    7067  # O-H
   4717    1    7066    7068  # O-H
   4718    1    7069    7070  # O-H
   4719    1    7069    7071  # O-H
   4720    1    7072    7073  # O-H
   4721    1    7072    7074  # O-H
   4722    1    7075    7076  # O-H
   4723    1    7075    7077  # O-H
   4724    1    7078    7079  # O-H
   4725    1    7078    7080  # O-H
   4726    1    7081    7082  # O-H
   4727    1    7081    7083  # O-H
   4728    1    7084    7085  # O-H
   4729    1    7084    7086  # O-H
   4730    1    7087    7088  # O-H
   4731    1    7087    7089  # O-H
   4732    1    7090    7091  # O-H
   4733    1    7090    7092  # O-H
   4734    1    7093    7094  # O-H
   4735    1    7093    7095  # O-H
   4736    1    7096    7097  # O-H
   4737    1    7096    7098  # O-H
   4738    1    7099    7100  # O-H
   4739    1    7099    7101  # O-H
   4740    1    7102    7103  # O-H
   4741    1    7102    7104  # O-H
   4742    1    7105    7106  # O-H
   4743    1    7105    7107  # O-H
   4744    1    7108    7109  # O-H
   4745    1    7108    7110  # O-H
   4746    1    7111    7112  # O-H
   4747    1    7111    7113  # O-H
   4748    1    7114    7115  # O-H
   4749    1    7114    7116  # O-H
   4750    1    7117    7118  # O-H
   4751    1    7117    7119  # O-H
   4752    1    7120    7121  # O-H
   4753    1    7120    7122  # O-H
   4754    1    7123    7124  # O-H
   4755    1    7123    7125  # O-H
   4756    1    7126    7127  # O-H
   4757    1    7126    7128  # O-H
   4758    1    7129    7130  # O-H
   4759    1    7129    7131  # O-H
   4760    1    7132    7133  # O-H
   4761    1    7132    7134  # O-H
   4762    1    7135    7136  # O-H
   4763    1    7135    7137  # O-H
   4764    1    7138    7139  # O-H
   4765    1    7138    7140  # O-H
   4766    1    7141    7142  # O-H
   4767    1    7141    7143  # O-H
   4768    1    7144    7145  # O-H
   4769    1    7144    7146  # O-H
   4770    1    7147    7148  # O-H
   4771    1    7147    7149  # O-H
   4772    1    7150    7151  # O-H
   4773    1    7150    7152  # O-H
   4774    1    7153    7154  # O-H
   4775    1    7153    7155  # O-H
   4776    1    7156    7157  # O-H
   4777    1    7156    7158  # O-H
   4778    1    7159    7160  # O-H
   4779    1    7159    7161  # O-H
   4780    1    7162    7163  # O-H
   4781    1    7162    7164  # O-H
   4782    1    7165    7166  # O-H
   4783    1    7165    7167  # O-H
   4784    1    7168    7169  # O-H
   4785    1    7168    7170  # O-H
   4786    1    7171    7172  # O-H
   4787    1    7171    7173  # O-H
   4788    1    7174    7175  # O-H
   4789    1    7174    7176  # O-H
   4790    1    7177    7178  # O-H
   4791    1    7177    7179  # O-H
   4792    1    7180    7181  # O-H
   4793    1    7180    7182  # O-H
   4794    1    7183    7184  # O-H
   4795    1    7183    7185  # O-H
   4796    1    7186    7187  # O-H
   4797    1    7186    7188  # O-H
   4798    1    7189    7190  # O-H
   4799    1    7189    7191  # O-H
   4800    1    7192    7193  # O-H
   4801    1    7192    7194  # O-H
   4802    1    7195    7196  # O-H
   4803    1    7195    7197  # O-H
   4804    1    7198    7199  # O-H
   4805    1    7198    7200  # O-H
   4806    1    7201    7202  # O-H
   4807    1    7201    7203  # O-H
   4808    1    7204    7205  # O-H
   4809    1    7204    7206  # O-H
   4810    1    7207    7208  # O-H
   4811    1    7207    7209  # O-H
   4812    1    7210    7211  # O-H
   4813    1    7210    7212  # O-H
   4814    1    7213    7214  # O-H
   4815    1    7213    7215  # O-H
   4816    1    7216    7217  # O-H
   4817    1    7216    7218  # O-H
   4818    1    7219    7220  # O-H
   4819    1    7219    7221  # O-H
   4820    1    7222    7223  # O-H
   4821    1    7222    7224  # O-H
   4822    1    7225    7226  # O-H
   4823    1    7225    7227  # O-H
   4824    1    7228    7229  # O-H
   4825    1    7228    7230  # O-H
   4826    1    7231    7232  # O-H
   4827    1    7231    7233  # O-H
   4828    1    7234    7235  # O-H
   4829    1    7234    7236  # O-H
   4830    1    7237    7238  # O-H
   4831    1    7237    7239  # O-H
   4832    1    7240    7241  # O-H
   4833    1    7240    7242  # O-H
   4834    1    7243    7244  # O-H
   4835    1    7243    7245  # O-H
   4836    1    7246    7247  # O-H
   4837    1    7246    7248  # O-H
   4838    1    7249    7250  # O-H
   4839    1    7249    7251  # O-H
   4840    1    7252    7253  # O-H
   4841    1    7252    7254  # O-H
   4842    1    7255    7256  # O-H
   4843    1    7255    7257  # O-H
   4844    1    7258    7259  # O-H
   4845    1    7258    7260  # O-H
   4846    1    7261    7262  # O-H
   4847    1    7261    7263  # O-H
   4848    1    7264    7265  # O-H
   4849    1    7264    7266  # O-H
   4850    1    7267    7268  # O-H
   4851    1    7267    7269  # O-H
   4852    1    7270    7271  # O-H
   4853    1    7270    7272  # O-H
   4854    1    7273    7274  # O-H
   4855    1    7273    7275  # O-H
   4856    1    7276    7277  # O-H
   4857    1    7276    7278  # O-H
   4858    1    7279    7280  # O-H
   4859    1    7279    7281  # O-H
   4860    1    7282    7283  # O-H
   4861    1    7282    7284  # O-H
   4862    1    7285    7286  # O-H
   4863    1    7285    7287  # O-H
   4864    1    7288    7289  # O-H
   4865    1    7288    7290  # O-H
   4866    1    7291    7292  # O-H
   4867    1    7291    7293  # O-H
   4868    1    7294    7295  # O-H
   4869    1    7294    7296  # O-H
   4870    1    7297    7298  # O-H
   4871    1    7297    7299  # O-H
   4872    1    7300    7301  # O-H
   4873    1    7300    7302  # O-H
   4874    1    7303    7304  # O-H
   4875    1    7303    7305  # O-H
   4876    1    7306    7307  # O-H
   4877    1    7306    7308  # O-H
   4878    1    7309    7310  # O-H
   4879    1    7309    7311  # O-H
   4880    1    7312    7313  # O-H
   4881    1    7312    7314  # O-H
   4882    1    7315    7316  # O-H
   4883    1    7315    7317  # O-H
   4884    1    7318    7319  # O-H
   4885    1    7318    7320  # O-H
   4886    1    7321    7322  # O-H
   4887    1    7321    7323  # O-H
   4888    1    7324    7325  # O-H
   4889    1    7324    7326  # O-H
   4890    1    7327    7328  # O-H
   4891    1    7327    7329  # O-H
   4892    1    7330    7331  # O-H
   4893    1    7330    7332  # O-H
   4894    1    7333    7334  # O-H
   4895    1    7333    7335  # O-H
   4896    1    7336    7337  # O-H
   4897    1    7336    7338  # O-H
   4898    1    7339    7340  # O-H
   4899    1    7339    7341  # O-H
   4900    1    7342    7343  # O-H
   4901    1    7342    7344  # O-H
   4902    1    7345    7346  # O-H
   4903    1    7345    7347  # O-H
   4904    1    7348    7349  # O-H
   4905    1    7348    7350  # O-H
   4906    1    7351    7352  # O-H
   4907    1    7351    7353  # O-H
   4908    1    7354    7355  # O-H
   4909    1    7354    7356  # O-H
   4910    1    7357    7358  # O-H
   4911    1    7357    7359  # O-H
   4912    1    7360    7361  # O-H
   4913    1    7360    7362  # O-H
   4914    1    7363    7364  # O-H
   4915    1    7363    7365  # O-H
   4916    1    7366    7367  # O-H
   4917    1    7366    7368  # O-H
   4918    1    7369    7370  # O-H
   4919    1    7369    7371  # O-H
   4920    1    7372    7373  # O-H
   4921    1    7372    7374  # O-H
   4922    1    7375    7376  # O-H
   4923    1    7375    7377  # O-H
   4924    1    7378    7379  # O-H
   4925    1    7378    7380  # O-H
   4926    1    7381    7382  # O-H
   4927    1    7381    7383  # O-H
   4928    1    7384    7385  # O-H
   4929    1    7384    7386  # O-H
   4930    1    7387    7388  # O-H
   4931    1    7387    7389  # O-H
   4932    1    7390    7391  # O-H
   4933    1    7390    7392  # O-H
   4934    1    7393    7394  # O-H
   4935    1    7393    7395  # O-H
   4936    1    7396    7397  # O-H
   4937    1    7396    7398  # O-H
   4938    1    7399    7400  # O-H
   4939    1    7399    7401  # O-H
   4940    1    7402    7403  # O-H
   4941    1    7402    7404  # O-H
   4942    1    7405    7406  # O-H
   4943    1    7405    7407  # O-H
   4944    1    7408    7409  # O-H
   4945    1    7408    7410  # O-H
   4946    1    7411    7412  # O-H
   4947    1    7411    7413  # O-H
   4948    1    7414    7415  # O-H
   4949    1    7414    7416  # O-H
   4950    1    7417    7418  # O-H
   4951    1    7417    7419  # O-H
   4952    1    7420    7421  # O-H
   4953    1    7420    7422  # O-H
   4954    1    7423    7424  # O-H
   4955    1    7423    7425  # O-H
   4956    1    7426    7427  # O-H
   4957    1    7426    7428  # O-H
   4958    1    7429    7430  # O-H
   4959    1    7429    7431  # O-H
   4960    1    7432    7433  # O-H
   4961    1    7432    7434  # O-H
   4962    1    7435    7436  # O-H
   4963    1    7435    7437  # O-H
   4964    1    7438    7439  # O-H
   4965    1    7438    7440  # O-H
   4966    1    7441    7442  # O-H
   4967    1    7441    7443  # O-H
   4968    1    7444    7445  # O-H
   4969    1    7444    7446  # O-H
   4970    1    7447    7448  # O-H
   4971    1    7447    7449  # O-H
   4972    1    7450    7451  # O-H
   4973    1    7450    7452  # O-H
   4974    1    7453    7454  # O-H
   4975    1    7453    7455  # O-H
   4976    1    7456    7457  # O-H
   4977    1    7456    7458  # O-H
   4978    1    7459    7460  # O-H
   4979    1    7459    7461  # O-H
   4980    1    7462    7463  # O-H
   4981    1    7462    7464  # O-H
   4982    1    7465    7466  # O-H
   4983    1    7465    7467  # O-H
   4984    1    7468    7469  # O-H
   4985    1    7468    7470  # O-H
   4986    1    7471    7472  # O-H
   4987    1    7471    7473  # O-H
   4988    1    7474    7475  # O-H
   4989    1    7474    7476  # O-H
   4990    1    7477    7478  # O-H
   4991    1    7477    7479  # O-H
   4992    1    7480    7481  # O-H
   4993    1    7480    7482  # O-H
   4994    1    7483    7484  # O-H
   4995    1    7483    7485  # O-H
   4996    1    7486    7487  # O-H
   4997    1    7486    7488  # O-H
   4998    1    7489    7490  # O-H
   4999    1    7489    7491  # O-H
   5000    1    7492    7493  # O-H
   5001    1    7492    7494  # O-H
   5002    1    7495    7496  # O-H
   5003    1    7495    7497  # O-H
   5004    1    7498    7499  # O-H
   5005    1    7498    7500  # O-H
   5006    1    7501    7502  # O-H
   5007    1    7501    7503  # O-H
   5008    1    7504    7505  # O-H
   5009    1    7504    7506  # O-H
   5010    1    7507    7508  # O-H
   5011    1    7507    7509  # O-H
   5012    1    7510    7511  # O-H
   5013    1    7510    7512  # O-H
   5014    1    7513    7514  # O-H
   5015    1    7513    7515  # O-H
   5016    1    7516    7517  # O-H
   5017    1    7516    7518  # O-H
   5018    1    7519    7520  # O-H
   5019    1    7519    7521  # O-H
   5020    1    7522    7523  # O-H
   5021    1    7522    7524  # O-H
   5022    1    7525    7526  # O-H
   5023    1    7525    7527  # O-H
   5024    1    7528    7529  # O-H
   5025    1    7528    7530  # O-H
   5026    1    7531    7532  # O-H
   5027    1    7531    7533  # O-H
   5028    1    7534    7535  # O-H
   5029    1    7534    7536  # O-H
   5030    1    7537    7538  # O-H
   5031    1    7537    7539  # O-H
   5032    1    7540    7541  # O-H
   5033    1    7540    7542  # O-H
   5034    1    7543    7544  # O-H
   5035    1    7543    7545  # O-H
   5036    1    7546    7547  # O-H
   5037    1    7546    7548  # O-H
   5038    1    7549    7550  # O-H
   5039    1    7549    7551  # O-H
   5040    1    7552    7553  # O-H
   5041    1    7552    7554  # O-H
   5042    1    7555    7556  # O-H
   5043    1    7555    7557  # O-H
   5044    1    7558    7559  # O-H
   5045    1    7558    7560  # O-H
   5046    1    7561    7562  # O-H
   5047    1    7561    7563  # O-H
   5048    1    7564    7565  # O-H
   5049    1    7564    7566  # O-H
   5050    1    7567    7568  # O-H
   5051    1    7567    7569  # O-H
   5052    1    7570    7571  # O-H
   5053    1    7570    7572  # O-H
   5054    1    7573    7574  # O-H
   5055    1    7573    7575  # O-H
   5056    1    7576    7577  # O-H
   5057    1    7576    7578  # O-H
   5058    1    7579    7580  # O-H
   5059    1    7579    7581  # O-H
   5060    1    7582    7583  # O-H
   5061    1    7582    7584  # O-H
   5062    1    7585    7586  # O-H
   5063    1    7585    7587  # O-H
   5064    1    7588    7589  # O-H
   5065    1    7588    7590  # O-H
   5066    1    7591    7592  # O-H
   5067    1    7591    7593  # O-H
   5068    1    7594    7595  # O-H
   5069    1    7594    7596  # O-H
   5070    1    7597    7598  # O-H
   5071    1    7597    7599  # O-H
   5072    1    7600    7601  # O-H
   5073    1    7600    7602  # O-H
   5074    1    7603    7604  # O-H
   5075    1    7603    7605  # O-H
   5076    1    7606    7607  # O-H
   5077    1    7606    7608  # O-H
   5078    1    7609    7610  # O-H
   5079    1    7609    7611  # O-H
   5080    1    7612    7613  # O-H
   5081    1    7612    7614  # O-H
   5082    1    7615    7616  # O-H
   5083    1    7615    7617  # O-H
   5084    1    7618    7619  # O-H
   5085    1    7618    7620  # O-H
   5086    1    7621    7622  # O-H
   5087    1    7621    7623  # O-H
   5088    1    7624    7625  # O-H
   5089    1    7624    7626  # O-H
   5090    1    7627    7628  # O-H
   5091    1    7627    7629  # O-H
   5092    1    7630    7631  # O-H
   5093    1    7630    7632  # O-H
   5094    1    7633    7634  # O-H
   5095    1    7633    7635  # O-H
   5096    1    7636    7637  # O-H
   5097    1    7636    7638  # O-H
   5098    1    7639    7640  # O-H
   5099    1    7639    7641  # O-H
   5100    1    7642    7643  # O-H
   5101    1    7642    7644  # O-H
   5102    1    7645    7646  # O-H
   5103    1    7645    7647  # O-H
   5104    1    7648    7649  # O-H
   5105    1    7648    7650  # O-H
   5106    1    7651    7652  # O-H
   5107    1    7651    7653  # O-H
   5108    1    7654    7655  # O-H
   5109    1    7654    7656  # O-H
   5110    1    7657    7658  # O-H
   5111    1    7657    7659  # O-H
   5112    1    7660    7661  # O-H
   5113    1    7660    7662  # O-H
   5114    1    7663    7664  # O-H
   5115    1    7663    7665  # O-H
   5116    1    7666    7667  # O-H
   5117    1    7666    7668  # O-H
   5118    1    7669    7670  # O-H
   5119    1    7669    7671  # O-H
   5120    1    7672    7673  # O-H
   5121    1    7672    7674  # O-H
   5122    1    7675    7676  # O-H
   5123    1    7675    7677  # O-H
   5124    1    7678    7679  # O-H
   5125    1    7678    7680  # O-H
   5126    1    7681    7682  # O-H
   5127    1    7681    7683  # O-H
   5128    1    7684    7685  # O-H
   5129    1    7684    7686  # O-H
   5130    1    7687    7688  # O-H
   5131    1    7687    7689  # O-H
   5132    1    7690    7691  # O-H
   5133    1    7690    7692  # O-H
   5134    1    7693    7694  # O-H
   5135    1    7693    7695  # O-H
   5136    1    7696    7697  # O-H
   5137    1    7696    7698  # O-H
   5138    1    7699    7700  # O-H
   5139    1    7699    7701  # O-H
   5140    1    7702    7703  # O-H
   5141    1    7702    7704  # O-H
   5142    1    7705    7706  # O-H
   5143    1    7705    7707  # O-H
   5144    1    7708    7709  # O-H
   5145    1    7708    7710  # O-H
   5146    1    7711    7712  # O-H
   5147    1    7711    7713  # O-H
   5148    1    7714    7715  # O-H
   5149    1    7714    7716  # O-H
   5150    1    7717    7718  # O-H
   5151    1    7717    7719  # O-H
   5152    1    7720    7721  # O-H
   5153    1    7720    7722  # O-H
   5154    1    7723    7724  # O-H
   5155    1    7723    7725  # O-H
   5156    1    7726    7727  # O-H
   5157    1    7726    7728  # O-H
   5158    1    7729    7730  # O-H
   5159    1    7729    7731  # O-H
   5160    1    7732    7733  # O-H
   5161    1    7732    7734  # O-H
   5162    1    7735    7736  # O-H
   5163    1    7735    7737  # O-H
   5164    1    7738    7739  # O-H
   5165    1    7738    7740  # O-H
   5166    1    7741    7742  # O-H
   5167    1    7741    7743  # O-H
   5168    1    7744    7745  # O-H
   5169    1    7744    7746  # O-H
   5170    1    7747    7748  # O-H
   5171    1    7747    7749  # O-H
   5172    1    7750    7751  # O-H
   5173    1    7750    7752  # O-H
   5174    1    7753    7754  # O-H
   5175    1    7753    7755  # O-H
   5176    1    7756    7757  # O-H
   5177    1    7756    7758  # O-H
   5178    1    7759    7760  # O-H
   5179    1    7759    7761  # O-H
   5180    1    7762    7763  # O-H
   5181    1    7762    7764  # O-H
   5182    1    7765    7766  # O-H
   5183    1    7765    7767  # O-H
   5184    1    7768    7769  # O-H
   5185    1    7768    7770  # O-H
   5186    1    7771    7772  # O-H
   5187    1    7771    7773  # O-H
   5188    1    7774    7775  # O-H
   5189    1    7774    7776  # O-H
   5190    1    7777    7778  # O-H
   5191    1    7777    7779  # O-H
   5192    1    7780    7781  # O-H
   5193    1    7780    7782  # O-H
   5194    1    7783    7784  # O-H
   5195    1    7783    7785  # O-H
   5196    1    7786    7787  # O-H
   5197    1    7786    7788  # O-H
   5198    1    7789    7790  # O-H
   5199    1    7789    7791  # O-H
   5200    1    7792    7793  # O-H
   5201    1    7792    7794  # O-H
   5202    1    7795    7796  # O-H
   5203    1    7795    7797  # O-H
   5204    1    7798    7799  # O-H
   5205    1    7798    7800  # O-H
   5206    1    7801    7802  # O-H
   5207    1    7801    7803  # O-H
   5208    1    7804    7805  # O-H
   5209    1    7804    7806  # O-H
   5210    1    7807    7808  # O-H
   5211    1    7807    7809  # O-H
   5212    1    7810    7811  # O-H
   5213    1    7810    7812  # O-H
   5214    1    7813    7814  # O-H
   5215    1    7813    7815  # O-H
   5216    1    7816    7817  # O-H
   5217    1    7816    7818  # O-H
   5218    1    7819    7820  # O-H
   5219    1    7819    7821  # O-H
   5220    1    7822    7823  # O-H
   5221    1    7822    7824  # O-H
   5222    1    7825    7826  # O-H
   5223    1    7825    7827  # O-H
   5224    1    7828    7829  # O-H
   5225    1    7828    7830  # O-H
   5226    1    7831    7832  # O-H
   5227    1    7831    7833  # O-H
   5228    1    7834    7835  # O-H
   5229    1    7834    7836  # O-H
   5230    1    7837    7838  # O-H
   5231    1    7837    7839  # O-H
   5232    1    7840    7841  # O-H
   5233    1    7840    7842  # O-H
   5234    1    7843    7844  # O-H
   5235    1    7843    7845  # O-H
   5236    1    7846    7847  # O-H
   5237    1    7846    7848  # O-H
   5238    1    7849    7850  # O-H
   5239    1    7849    7851  # O-H
   5240    1    7852    7853  # O-H
   5241    1    7852    7854  # O-H
   5242    1    7855    7856  # O-H
   5243    1    7855    7857  # O-H
   5244    1    7858    7859  # O-H
   5245    1    7858    7860  # O-H
   5246    1    7861    7862  # O-H
   5247    1    7861    7863  # O-H
   5248    1    7864    7865  # O-H
   5249    1    7864    7866  # O-H
   5250    1    7867    7868  # O-H
   5251    1    7867    7869  # O-H
   5252    1    7870    7871  # O-H
   5253    1    7870    7872  # O-H
   5254    1    7873    7874  # O-H
   5255    1    7873    7875  # O-H
   5256    1    7876    7877  # O-H
   5257    1    7876    7878  # O-H
   5258    1    7879    7880  # O-H
   5259    1    7879    7881  # O-H
   5260    1    7882    7883  # O-H
   5261    1    7882    7884  # O-H
   5262    1    7885    7886  # O-H
   5263    1    7885    7887  # O-H
   5264    1    7888    7889  # O-H
   5265    1    7888    7890  # O-H
   5266    1    7891    7892  # O-H
   5267    1    7891    7893  # O-H
   5268    1    7894    7895  # O-H
   5269    1    7894    7896  # O-H
   5270    1    7897    7898  # O-H
   5271    1    7897    7899  # O-H
   5272    1    7900    7901  # O-H
   5273    1    7900    7902  # O-H
   5274    1    7903    7904  # O-H
   5275    1    7903    7905  # O-H
   5276    1    7906    7907  # O-H
   5277    1    7906    7908  # O-H
   5278    1    7909    7910  # O-H
   5279    1    7909    7911  # O-H
   5280    1    7912    7913  # O-H
   5281    1    7912    7914  # O-H
   5282    1    7915    7916  # O-H
   5283    1    7915    7917  # O-H
   5284    1    7918    7919  # O-H
   5285    1    7918    7920  # O-H
   5286    1    7921    7922  # O-H
   5287    1    7921    7923  # O-H
   5288    1    7924    7925  # O-H
   5289    1    7924    7926  # O-H
   5290    1    7927    7928  # O-H
   5291    1    7927    7929  # O-H
   5292    1    7930    7931  # O-H
   5293    1    7930    7932  # O-H
   5294    1    7933    7934  # O-H
   5295    1    7933    7935  # O-H
   5296    1    7936    7937  # O-H
   5297    1    7936    7938  # O-H
   5298    1    7939    7940  # O-H
   5299    1    7939    7941  # O-H
   5300    1    7942    7943  # O-H
   5301    1    7942    7944  # O-H
   5302    1    7945    7946  # O-H
   5303    1    7945    7947  # O-H
   5304    1    7948    7949  # O-H
   5305    1    7948    7950  # O-H
   5306    1    7951    7952  # O-H
   5307    1    7951    7953  # O-H
   5308    1    7954    7955  # O-H
   5309    1    7954    7956  # O-H
   5310    1    7957    7958  # O-H
   5311    1    7957    7959  # O-H
   5312    1    7960    7961  # O-H
   5313    1    7960    7962  # O-H
   5314    1    7963    7964  # O-H
   5315    1    7963    7965  # O-H
   5316    1    7966    7967  # O-H
   5317    1    7966    7968  # O-H
   5318    1    7969    7970  # O-H
   5319    1    7969    7971  # O-H
   5320    1    7972    7973  # O-H
   5321    1    7972    7974  # O-H
   5322    1    7975    7976  # O-H
   5323    1    7975    7977  # O-H
   5324    1    7978    7979  # O-H
   5325    1    7978    7980  # O-H
   5326    1    7981    7982  # O-H
   5327    1    7981    7983  # O-H
   5328    1    7984    7985  # O-H
   5329    1    7984    7986  # O-H
   5330    1    7987    7988  # O-H
   5331    1    7987    7989  # O-H
   5332    1    7990    7991  # O-H
   5333    1    7990    7992  # O-H
   5334    1    7993    7994  # O-H
   5335    1    7993    7995  # O-H
   5336    1    7996    7997  # O-H
   5337    1    7996    7998  # O-H
   5338    1    7999    8000  # O-H
   5339    1    7999    8001  # O-H
   5340    1    8002    8003  # O-H
   5341    1    8002    8004  # O-H
   5342    1    8005    8006  # O-H
   5343    1    8005    8007  # O-H
   5344    1    8008    8009  # O-H
   5345    1    8008    8010  # O-H
   5346    1    8011    8012  # O-H
   5347    1    8011    8013  # O-H
   5348    1    8014    8015  # O-H
   5349    1    8014    8016  # O-H
   5350    1    8017    8018  # O-H
   5351    1    8017    8019  # O-H
   5352    1    8020    8021  # O-H
   5353    1    8020    8022  # O-H
   5354    1    8023    8024  # O-H
   5355    1    8023    8025  # O-H
   5356    1    8026    8027  # O-H
   5357    1    8026    8028  # O-H
   5358    1    8029    8030  # O-H
   5359    1    8029    8031  # O-H
   5360    1    8032    8033  # O-H
   5361    1    8032    8034  # O-H
   5362    1    8035    8036  # O-H
   5363    1    8035    8037  # O-H
   5364    1    8038    8039  # O-H
   5365    1    8038    8040  # O-H
   5366    1    8041    8042  # O-H
   5367    1    8041    8043  # O-H
   5368    1    8044    8045  # O-H
   5369    1    8044    8046  # O-H
   5370    1    8047    8048  # O-H
   5371    1    8047    8049  # O-H
   5372    1    8050    8051  # O-H
   5373    1    8050    8052  # O-H
   5374    1    8053    8054  # O-H
   5375    1    8053    8055  # O-H
   5376    1    8056    8057  # O-H
   5377    1    8056    8058  # O-H
   5378    1    8059    8060  # O-H
   5379    1    8059    8061  # O-H
   5380    1    8062    8063  # O-H
   5381    1    8062    8064  # O-H
   5382    1    8065    8066  # O-H
   5383    1    8065    8067  # O-H
   5384    1    8068    8069  # O-H
   5385    1    8068    8070  # O-H
   5386    1    8071    8072  # O-H
   5387    1    8071    8073  # O-H
   5388    1    8074    8075  # O-H
   5389    1    8074    8076  # O-H
   5390    1    8077    8078  # O-H
   5391    1    8077    8079  # O-H
   5392    1    8080    8081  # O-H
   5393    1    8080    8082  # O-H
   5394    1    8083    8084  # O-H
   5395    1    8083    8085  # O-H
   5396    1    8086    8087  # O-H
   5397    1    8086    8088  # O-H
   5398    1    8089    8090  # O-H
   5399    1    8089    8091  # O-H
   5400    1    8092    8093  # O-H
   5401    1    8092    8094  # O-H
   5402    1    8095    8096  # O-H
   5403    1    8095    8097  # O-H
   5404    1    8098    8099  # O-H
   5405    1    8098    8100  # O-H
   5406    1    8101    8102  # O-H
   5407    1    8101    8103  # O-H
   5408    1    8104    8105  # O-H
   5409    1    8104    8106  # O-H
   5410    1    8107    8108  # O-H
   5411    1    8107    8109  # O-H
   5412    1    8110    8111  # O-H
   5413    1    8110    8112  # O-H
   5414    1    8113    8114  # O-H
   5415    1    8113    8115  # O-H
   5416    1    8116    8117  # O-H
   5417    1    8116    8118  # O-H
   5418    1    8119    8120  # O-H
   5419    1    8119    8121  # O-H
   5420    1    8122    8123  # O-H
   5421    1    8122    8124  # O-H
   5422    1    8125    8126  # O-H
   5423    1    8125    8127  # O-H
   5424    1    8128    8129  # O-H
   5425    1    8128    8130  # O-H
   5426    1    8131    8132  # O-H
   5427    1    8131    8133  # O-H
   5428    1    8134    8135  # O-H
   5429    1    8134    8136  # O-H
   5430    1    8137    8138  # O-H
   5431    1    8137    8139  # O-H
   5432    1    8140    8141  # O-H
   5433    1    8140    8142  # O-H
   5434    1    8143    8144  # O-H
   5435    1    8143    8145  # O-H
   5436    1    8146    8147  # O-H
   5437    1    8146    8148  # O-H
   5438    1    8149    8150  # O-H
   5439    1    8149    8151  # O-H
   5440    1    8152    8153  # O-H
   5441    1    8152    8154  # O-H
   5442    1    8155    8156  # O-H
   5443    1    8155    8157  # O-H
   5444    1    8158    8159  # O-H
   5445    1    8158    8160  # O-H
   5446    1    8161    8162  # O-H
   5447    1    8161    8163  # O-H
   5448    1    8164    8165  # O-H
   5449    1    8164    8166  # O-H
   5450    1    8167    8168  # O-H
   5451    1    8167    8169  # O-H
   5452    1    8170    8171  # O-H
   5453    1    8170    8172  # O-H
   5454    1    8173    8174  # O-H
   5455    1    8173    8175  # O-H
   5456    1    8176    8177  # O-H
   5457    1    8176    8178  # O-H
   5458    1    8179    8180  # O-H
   5459    1    8179    8181  # O-H
   5460    1    8182    8183  # O-H
   5461    1    8182    8184  # O-H
   5462    1    8185    8186  # O-H
   5463    1    8185    8187  # O-H
   5464    1    8188    8189  # O-H
   5465    1    8188    8190  # O-H
   5466    1    8191    8192  # O-H
   5467    1    8191    8193  # O-H
   5468    1    8194    8195  # O-H
   5469    1    8194    8196  # O-H
   5470    1    8197    8198  # O-H
   5471    1    8197    8199  # O-H
   5472    1    8200    8201  # O-H
   5473    1    8200    8202  # O-H
   5474    1    8203    8204  # O-H
   5475    1    8203    8205  # O-H
   5476    1    8206    8207  # O-H
   5477    1    8206    8208  # O-H
   5478    1    8209    8210  # O-H
   5479    1    8209    8211  # O-H
   5480    1    8212    8213  # O-H
   5481    1    8212    8214  # O-H
   5482    1    8215    8216  # O-H
   5483    1    8215    8217  # O-H
   5484    1    8218    8219  # O-H
   5485    1    8218    8220  # O-H
   5486    1    8221    8222  # O-H
   5487    1    8221    8223  # O-H
   5488    1    8224    8225  # O-H
   5489    1    8224    8226  # O-H
   5490    1    8227    8228  # O-H
   5491    1    8227    8229  # O-H
   5492    1    8230    8231  # O-H
   5493    1    8230    8232  # O-H
   5494    1    8233    8234  # O-H
   5495    1    8233    8235  # O-H
   5496    1    8236    8237  # O-H
   5497    1    8236    8238  # O-H
   5498    1    8239    8240  # O-H
   5499    1    8239    8241  # O-H
   5500    1    8242    8243  # O-H
   5501    1    8242    8244  # O-H
   5502    1    8245    8246  # O-H
   5503    1    8245    8247  # O-H
   5504    1    8248    8249  # O-H
   5505    1    8248    8250  # O-H
   5506    1    8251    8252  # O-H
   5507    1    8251    8253  # O-H
   5508    1    8254    8255  # O-H
   5509    1    8254    8256  # O-H
   5510    1    8257    8258  # O-H
   5511    1    8257    8259  # O-H
   5512    1    8260    8261  # O-H
   5513    1    8260    8262  # O-H
   5514    1    8263    8264  # O-H
   5515    1    8263    8265  # O-H
   5516    1    8266    8267  # O-H
   5517    1    8266    8268  # O-H
   5518    1    8269    8270  # O-H
   5519    1    8269    8271  # O-H
   5520    1    8272    8273  # O-H
   5521    1    8272    8274  # O-H
   5522    1    8275    8276  # O-H
   5523    1    8275    8277  # O-H
   5524    1    8278    8279  # O-H
   5525    1    8278    8280  # O-H
   5526    1    8281    8282  # O-H
   5527    1    8281    8283  # O-H
   5528    1    8284    8285  # O-H
   5529    1    8284    8286  # O-H
   5530    1    8287    8288  # O-H
   5531    1    8287    8289  # O-H
   5532    1    8290    8291  # O-H
   5533    1    8290    8292  # O-H
   5534    1    8293    8294  # O-H
   5535    1    8293    8295  # O-H
   5536    1    8296    8297  # O-H
   5537    1    8296    8298  # O-H
   5538    1    8299    8300  # O-H
   5539    1    8299    8301  # O-H
   5540    1    8302    8303  # O-H
   5541    1    8302    8304  # O-H
   5542    1    8305    8306  # O-H
   5543    1    8305    8307  # O-H
   5544    1    8308    8309  # O-H
   5545    1    8308    8310  # O-H
   5546    1    8311    8312  # O-H
   5547    1    8311    8313  # O-H
   5548    1    8314    8315  # O-H
   5549    1    8314    8316  # O-H
   5550    1    8317    8318  # O-H
   5551    1    8317    8319  # O-H
   5552    1    8320    8321  # O-H
   5553    1    8320    8322  # O-H
   5554    1    8323    8324  # O-H
   5555    1    8323    8325  # O-H
   5556    1    8326    8327  # O-H
   5557    1    8326    8328  # O-H
   5558    1    8329    8330  # O-H
   5559    1    8329    8331  # O-H
   5560    1    8332    8333  # O-H
   5561    1    8332    8334  # O-H
   5562    1    8335    8336  # O-H
   5563    1    8335    8337  # O-H
   5564    1    8338    8339  # O-H
   5565    1    8338    8340  # O-H
   5566    1    8341    8342  # O-H
   5567    1    8341    8343  # O-H
   5568    1    8344    8345  # O-H
   5569    1    8344    8346  # O-H
   5570    1    8347    8348  # O-H
   5571    1    8347    8349  # O-H
   5572    1    8350    8351  # O-H
   5573    1    8350    8352  # O-H

Angles

      1    1     418     417     419  # H-O-H
      2    1     421     420     422  # H-O-H
      3    1     424     423     425  # H-O-H
      4    1     427     426     428  # H-O-H
      5    1     430     429     431  # H-O-H
      6    1     433     432     434  # H-O-H
      7    1     436     435     437  # H-O-H
      8    1     439     438     440  # H-O-H
      9    1     442     441     443  # H-O-H
     10    1     445     444     446  # H-O-H
     11    1     448     447     449  # H-O-H
     12    1     451     450     452  # H-O-H
     13    1     454     453     455  # H-O-H
     14    1     457     456     458  # H-O-H
     15    1     460     459     461  # H-O-H
     16    1     463     462     464  # H-O-H
     17    1     466     465     467  # H-O-H
     18    1     469     468     470  # H-O-H
     19    1     472     471     473  # H-O-H
     20    1     475     474     476  # H-O-H
     21    1     478     477     479  # H-O-H
     22    1     481     480     482  # H-O-H
     23    1     484     483     485  # H-O-H
     24    1     487     486     488  # H-O-H
     25    1     490     489     491  # H-O-H
     26    1     493     492     494  # H-O-H
     27    1     496     495     497  # H-O-H
     28    1     499     498     500  # H-O-H
     29    1     502     501     503  # H-O-H
     30    1     505     504     506  # H-O-H
     31    1     508     507     509  # H-O-H
     32    1     511     510     512  # H-O-H
     33    1     514     513     515  # H-O-H
     34    1     517     516     518  # H-O-H
     35    1     520     519     521  # H-O-H
     36    1     523     522     524  # H-O-H
     37    1     526     525     527  # H-O-H
     38    1     529     528     530  # H-O-H
     39    1     532     531     533  # H-O-H
     40    1     535     534     536  # H-O-H
     41    1     538     537     539  # H-O-H
     42    1     541     540     542  # H-O-H
     43    1     544     543     545  # H-O-H
     44    1     547     546     548  # H-O-H
     45    1     550     549     551  # H-O-H
     46    1     553     552     554  # H-O-H
     47    1     556     555     557  # H-O-H
     48    1     559     558     560  # H-O-H
     49    1     562     561     563  # H-O-H
     50    1     565     564     566  # H-O-H
     51    1     568     567     569  # H-O-H
     52    1     571     570     572  # H-O-H
     53    1     574     573     575  # H-O-H
     54    1     577     576     578  # H-O-H
     55    1     580     579     581  # H-O-H
     56    1     583     582     584  # H-O-H
     57    1     586     585     587  # H-O-H
     58    1     589     588     590  # H-O-H
     59    1     592     591     593  # H-O-H
     60    1     595     594     596  # H-O-H
     61    1     598     597     599  # H-O-H
     62    1     601     600     602  # H-O-H
     63    1     604     603     605  # H-O-H
     64    1     607     606     608  # H-O-H
     65    1     610     609     611  # H-O-H
     66    1     613     612     614  # H-O-H
     67    1     616     615     617  # H-O-H
     68    1     619     618     620  # H-O-H
     69    1     622     621     623  # H-O-H
     70    1     625     624     626  # H-O-H
     71    1     628     627     629  # H-O-H
     72    1     631     630     632  # H-O-H
     73    1     634     633     635  # H-O-H
     74    1     637     636     638  # H-O-H
     75    1     640     639     641  # H-O-H
     76    1     643     642     644  # H-O-H
     77    1     646     645     647  # H-O-H
     78    1     649     648     650  # H-O-H
     79    1     652     651     653  # H-O-H
     80    1     655     654     656  # H-O-H
     81    1     658     657     659  # H-O-H
     82    1     661     660     662  # H-O-H
     83    1     664     663     665  # H-O-H
     84    1     667     666     668  # H-O-H
     85    1     670     669     671  # H-O-H
     86    1     673     672     674  # H-O-H
     87    1     676     675     677  # H-O-H
     88    1     679     678     680  # H-O-H
     89    1     682     681     683  # H-O-H
     90    1     685     684     686  # H-O-H
     91    1     688     687     689  # H-O-H
     92    1     691     690     692  # H-O-H
     93    1     694     693     695  # H-O-H
     94    1     697     696     698  # H-O-H
     95    1     700     699     701  # H-O-H
     96    1     703     702     704  # H-O-H
     97    1     706     705     707  # H-O-H
     98    1     709     708     710  # H-O-H
     99    1     712     711     713  # H-O-H
    100    1     715     714     716  # H-O-H
    101    1     718     717     719  # H-O-H
    102    1     721     720     722  # H-O-H
    103    1     724     723     725  # H-O-H
    104    1     727     726     728  # H-O-H
    105    1     730     729     731  # H-O-H
    106    1     733     732     734  # H-O-H
    107    1     736     735     737  # H-O-H
    108    1     739     738     740  # H-O-H
    109    1     742     741     743  # H-O-H
    110    1     745     744     746  # H-O-H
    111    1     748     747     749  # H-O-H
    112    1     751     750     752  # H-O-H
    113    1     754     753     755  # H-O-H
    114    1     757     756     758  # H-O-H
    115    1     760     759     761  # H-O-H
    116    1     763     762     764  # H-O-H
    117    1     766     765     767  # H-O-H
    118    1     769     768     770  # H-O-H
    119    1     772     771     773  # H-O-H
    120    1     775     774     776  # H-O-H
    121    1     778     777     779  # H-O-H
    122    1     781     780     782  # H-O-H
    123    1     784     783     785  # H-O-H
    124    1     787     786     788  # H-O-H
    125    1     790     789     791  # H-O-H
    126    1     793     792     794  # H-O-H
    127    1     796     795     797  # H-O-H
    128    1     799     798     800  # H-O-H
    129    1     802     801     803  # H-O-H
    130    1     805     804     806  # H-O-H
    131    1     808     807     809  # H-O-H
    132    1     811     810     812  # H-O-H
    133    1     814     813     815  # H-O-H
    134    1     817     816     818  # H-O-H
    135    1     820     819     821  # H-O-H
    136    1     823     822     824  # H-O-H
    137    1     826     825     827  # H-O-H
    138    1     829     828     830  # H-O-H
    139    1     832     831     833  # H-O-H
    140    1     835     834     836  # H-O-H
    141    1     838     837     839  # H-O-H
    142    1     841     840     842  # H-O-H
    143    1     844     843     845  # H-O-H
    144    1     847     846     848  # H-O-H
    145    1     850     849     851  # H-O-H
    146    1     853     852     854  # H-O-H
    147    1     856     855     857  # H-O-H
    148    1     859     858     860  # H-O-H
    149    1     862     861     863  # H-O-H
    150    1     865     864     866  # H-O-H
    151    1     868     867     869  # H-O-H
    152    1     871     870     872  # H-O-H
    153    1     874     873     875  # H-O-H
    154    1     877     876     878  # H-O-H
    155    1     880     879     881  # H-O-H
    156    1     883     882     884  # H-O-H
    157    1     886     885     887  # H-O-H
    158    1     889     888     890  # H-O-H
    159    1     892     891     893  # H-O-H
    160    1     895     894     896  # H-O-H
    161    1     898     897     899  # H-O-H
    162    1     901     900     902  # H-O-H
    163    1     904     903     905  # H-O-H
    164    1     907     906     908  # H-O-H
    165    1     910     909     911  # H-O-H
    166    1     913     912     914  # H-O-H
    167    1     916     915     917  # H-O-H
    168    1     919     918     920  # H-O-H
    169    1     922     921     923  # H-O-H
    170    1     925     924     926  # H-O-H
    171    1     928     927     929  # H-O-H
    172    1     931     930     932  # H-O-H
    173    1     934     933     935  # H-O-H
    174    1     937     936     938  # H-O-H
    175    1     940     939     941  # H-O-H
    176    1     943     942     944  # H-O-H
    177    1     946     945     947  # H-O-H
    178    1     949     948     950  # H-O-H
    179    1     952     951     953  # H-O-H
    180    1     955     954     956  # H-O-H
    181    1     958     957     959  # H-O-H
    182    1     961     960     962  # H-O-H
    183    1     964     963     965  # H-O-H
    184    1     967     966     968  # H-O-H
    185    1     970     969     971  # H-O-H
    186    1     973     972     974  # H-O-H
    187    1     976     975     977  # H-O-H
    188    1     979     978     980  # H-O-H
    189    1     982     981     983  # H-O-H
    190    1     985     984     986  # H-O-H
    191    1     988     987     989  # H-O-H
    192    1     991     990     992  # H-O-H
    193    1     994     993     995  # H-O-H
    194    1     997     996     998  # H-O-H
    195    1    1000     999    1001  # H-O-H
    196    1    1003    1002    1004  # H-O-H
    197    1    1006    1005    1007  # H-O-H
    198    1    1009    1008    1010  # H-O-H
    199    1    1012    1011    1013  # H-O-H
    200    1    1015    1014    1016  # H-O-H
    201    1    1018    1017    1019  # H-O-H
    202    1    1021    1020    1022  # H-O-H
    203    1    1024    1023    1025  # H-O-H
    204    1    1027    1026    1028  # H-O-H
    205    1    1030    1029    1031  # H-O-H
    206    1    1033    1032    1034  # H-O-H
    207    1    1036    1035    1037  # H-O-H
    208    1    1039    1038    1040  # H-O-H
    209    1    1042    1041    1043  # H-O-H
    210    1    1045    1044    1046  # H-O-H
    211    1    1048    1047    1049  # H-O-H
    212    1    1051    1050    1052  # H-O-H
    213    1    1054    1053    1055  # H-O-H
    214    1    1057    1056    1058  # H-O-H
    215    1    1060    1059    1061  # H-O-H
    216    1    1063    1062    1064  # H-O-H
    217    1    1066    1065    1067  # H-O-H
    218    1    1069    1068    1070  # H-O-H
    219    1    1072    1071    1073  # H-O-H
    220    1    1075    1074    1076  # H-O-H
    221    1    1078    1077    1079  # H-O-H
    222    1    1081    1080    1082  # H-O-H
    223    1    1084    1083    1085  # H-O-H
    224    1    1087    1086    1088  # H-O-H
    225    1    1090    1089    1091  # H-O-H
    226    1    1093    1092    1094  # H-O-H
    227    1    1096    1095    1097  # H-O-H
    228    1    1099    1098    1100  # H-O-H
    229    1    1102    1101    1103  # H-O-H
    230    1    1105    1104    1106  # H-O-H
    231    1    1108    1107    1109  # H-O-H
    232    1    1111    1110    1112  # H-O-H
    233    1    1114    1113    1115  # H-O-H
    234    1    1117    1116    1118  # H-O-H
    235    1    1120    1119    1121  # H-O-H
    236    1    1123    1122    1124  # H-O-H
    237    1    1126    1125    1127  # H-O-H
    238    1    1129    1128    1130  # H-O-H
    239    1    1132    1131    1133  # H-O-H
    240    1    1135    1134    1136  # H-O-H
    241    1    1138    1137    1139  # H-O-H
    242    1    1141    1140    1142  # H-O-H
    243    1    1144    1143    1145  # H-O-H
    244    1    1147    1146    1148  # H-O-H
    245    1    1150    1149    1151  # H-O-H
    246    1    1153    1152    1154  # H-O-H
    247    1    1156    1155    1157  # H-O-H
    248    1    1159    1158    1160  # H-O-H
    249    1    1162    1161    1163  # H-O-H
    250    1    1165    1164    1166  # H-O-H
    251    1    1168    1167    1169  # H-O-H
    252    1    1171    1170    1172  # H-O-H
    253    1    1174    1173    1175  # H-O-H
    254    1    1177    1176    1178  # H-O-H
    255    1    1180    1179    1181  # H-O-H
    256    1    1183    1182    1184  # H-O-H
    257    1    1186    1185    1187  # H-O-H
    258    1    1189    1188    1190  # H-O-H
    259    1    1192    1191    1193  # H-O-H
    260    1    1195    1194    1196  # H-O-H
    261    1    1198    1197    1199  # H-O-H
    262    1    1201    1200    1202  # H-O-H
    263    1    1204    1203    1205  # H-O-H
    264    1    1207    1206    1208  # H-O-H
    265    1    1210    1209    1211  # H-O-H
    266    1    1213    1212    1214  # H-O-H
    267    1    1216    1215    1217  # H-O-H
    268    1    1219    1218    1220  # H-O-H
    269    1    1222    1221    1223  # H-O-H
    270    1    1225    1224    1226  # H-O-H
    271    1    1228    1227    1229  # H-O-H
    272    1    1231    1230    1232  # H-O-H
    273    1    1234    1233    1235  # H-O-H
    274    1    1237    1236    1238  # H-O-H
    275    1    1240    1239    1241  # H-O-H
    276    1    1243    1242    1244  # H-O-H
    277    1    1246    1245    1247  # H-O-H
    278    1    1249    1248    1250  # H-O-H
    279    1    1252    1251    1253  # H-O-H
    280    1    1255    1254    1256  # H-O-H
    281    1    1258    1257    1259  # H-O-H
    282    1    1261    1260    1262  # H-O-H
    283    1    1264    1263    1265  # H-O-H
    284    1    1267    1266    1268  # H-O-H
    285    1    1270    1269    1271  # H-O-H
    286    1    1273    1272    1274  # H-O-H
    287    1    1276    1275    1277  # H-O-H
    288    1    1279    1278    1280  # H-O-H
    289    1    1282    1281    1283  # H-O-H
    290    1    1285    1284    1286  # H-O-H
    291    1    1288    1287    1289  # H-O-H
    292    1    1291    1290    1292  # H-O-H
    293    1    1294    1293    1295  # H-O-H
    294    1    1297    1296    1298  # H-O-H
    295    1    1300    1299    1301  # H-O-H
    296    1    1303    1302    1304  # H-O-H
    297    1    1306    1305    1307  # H-O-H
    298    1    1309    1308    1310  # H-O-H
    299    1    1312    1311    1313  # H-O-H
    300    1    1315    1314    1316  # H-O-H
    301    1    1318    1317    1319  # H-O-H
    302    1    1321    1320    1322  # H-O-H
    303    1    1324    1323    1325  # H-O-H
    304    1    1327    1326    1328  # H-O-H
    305    1    1330    1329    1331  # H-O-H
    306    1    1333    1332    1334  # H-O-H
    307    1    1336    1335    1337  # H-O-H
    308    1    1339    1338    1340  # H-O-H
    309    1    1342    1341    1343  # H-O-H
    310    1    1345    1344    1346  # H-O-H
    311    1    1348    1347    1349  # H-O-H
    312    1    1351    1350    1352  # H-O-H
    313    1    1354    1353    1355  # H-O-H
    314    1    1357    1356    1358  # H-O-H
    315    1    1360    1359    1361  # H-O-H
    316    1    1363    1362    1364  # H-O-H
    317    1    1366    1365    1367  # H-O-H
    318    1    1369    1368    1370  # H-O-H
    319    1    1372    1371    1373  # H-O-H
    320    1    1375    1374    1376  # H-O-H
    321    1    1378    1377    1379  # H-O-H
    322    1    1381    1380    1382  # H-O-H
    323    1    1384    1383    1385  # H-O-H
    324    1    1387    1386    1388  # H-O-H
    325    1    1390    1389    1391  # H-O-H
    326    1    1393    1392    1394  # H-O-H
    327    1    1396    1395    1397  # H-O-H
    328    1    1399    1398    1400  # H-O-H
    329    1    1402    1401    1403  # H-O-H
    330    1    1405    1404    1406  # H-O-H
    331    1    1408    1407    1409  # H-O-H
    332    1    1411    1410    1412  # H-O-H
    333    1    1414    1413    1415  # H-O-H
    334    1    1417    1416    1418  # H-O-H
    335    1    1420    1419    1421  # H-O-H
    336    1    1423    1422    1424  # H-O-H
    337    1    1426    1425    1427  # H-O-H
    338    1    1429    1428    1430  # H-O-H
    339    1    1432    1431    1433  # H-O-H
    340    1    1435    1434    1436  # H-O-H
    341    1    1438    1437    1439  # H-O-H
    342    1    1441    1440    1442  # H-O-H
    343    1    1444    1443    1445  # H-O-H
    344    1    1447    1446    1448  # H-O-H
    345    1    1450    1449    1451  # H-O-H
    346    1    1453    1452    1454  # H-O-H
    347    1    1456    1455    1457  # H-O-H
    348    1    1459    1458    1460  # H-O-H
    349    1    1462    1461    1463  # H-O-H
    350    1    1465    1464    1466  # H-O-H
    351    1    1468    1467    1469  # H-O-H
    352    1    1471    1470    1472  # H-O-H
    353    1    1474    1473    1475  # H-O-H
    354    1    1477    1476    1478  # H-O-H
    355    1    1480    1479    1481  # H-O-H
    356    1    1483    1482    1484  # H-O-H
    357    1    1486    1485    1487  # H-O-H
    358    1    1489    1488    1490  # H-O-H
    359    1    1492    1491    1493  # H-O-H
    360    1    1495    1494    1496  # H-O-H
    361    1    1498    1497    1499  # H-O-H
    362    1    1501    1500    1502  # H-O-H
    363    1    1504    1503    1505  # H-O-H
    364    1    1507    1506    1508  # H-O-H
    365    1    1510    1509    1511  # H-O-H
    366    1    1513    1512    1514  # H-O-H
    367    1    1516    1515    1517  # H-O-H
    368    1    1519    1518    1520  # H-O-H
    369    1    1522    1521    1523  # H-O-H
    370    1    1525    1524    1526  # H-O-H
    371    1    1528    1527    1529  # H-O-H
    372    1    1531    1530    1532  # H-O-H
    373    1    1534    1533    1535  # H-O-H
    374    1    1537    1536    1538  # H-O-H
    375    1    1540    1539    1541  # H-O-H
    376    1    1543    1542    1544  # H-O-H
    377    1    1546    1545    1547  # H-O-H
    378    1    1549    1548    1550  # H-O-H
    379    1    1552    1551    1553  # H-O-H
    380    1    1555    1554    1556  # H-O-H
    381    1    1558    1557    1559  # H-O-H
    382    1    1561    1560    1562  # H-O-H
    383    1    1564    1563    1565  # H-O-H
    384    1    1567    1566    1568  # H-O-H
    385    1    1570    1569    1571  # H-O-H
    386    1    1573    1572    1574  # H-O-H
    387    1    1576    1575    1577  # H-O-H
    388    1    1579    1578    1580  # H-O-H
    389    1    1582    1581    1583  # H-O-H
    390    1    1585    1584    1586  # H-O-H
    391    1    1588    1587    1589  # H-O-H
    392    1    1591    1590    1592  # H-O-H
    393    1    1594    1593    1595  # H-O-H
    394    1    1597    1596    1598  # H-O-H
    395    1    1600    1599    1601  # H-O-H
    396    1    1603    1602    1604  # H-O-H
    397    1    1606    1605    1607  # H-O-H
    398    1    1609    1608    1610  # H-O-H
    399    1    1612    1611    1613  # H-O-H
    400    1    1615    1614    1616  # H-O-H
    401    1    1618    1617    1619  # H-O-H
    402    1    1621    1620    1622  # H-O-H
    403    1    1624    1623    1625  # H-O-H
    404    1    1627    1626    1628  # H-O-H
    405    1    1630    1629    1631  # H-O-H
    406    1    1633    1632    1634  # H-O-H
    407    1    1636    1635    1637  # H-O-H
    408    1    1639    1638    1640  # H-O-H
    409    1    1642    1641    1643  # H-O-H
    410    1    1645    1644    1646  # H-O-H
    411    1    1648    1647    1649  # H-O-H
    412    1    1651    1650    1652  # H-O-H
    413    1    1654    1653    1655  # H-O-H
    414    1    1657    1656    1658  # H-O-H
    415    1    1660    1659    1661  # H-O-H
    416    1    1663    1662    1664  # H-O-H
    417    1    1666    1665    1667  # H-O-H
    418    1    1669    1668    1670  # H-O-H
    419    1    1672    1671    1673  # H-O-H
    420    1    1675    1674    1676  # H-O-H
    421    1    1678    1677    1679  # H-O-H
    422    1    1681    1680    1682  # H-O-H
    423    1    1684    1683    1685  # H-O-H
    424    1    1687    1686    1688  # H-O-H
    425    1    1690    1689    1691  # H-O-H
    426    1    1693    1692    1694  # H-O-H
    427    1    1696    1695    1697  # H-O-H
    428    1    1699    1698    1700  # H-O-H
    429    1    1702    1701    1703  # H-O-H
    430    1    1705    1704    1706  # H-O-H
    431    1    1708    1707    1709  # H-O-H
    432    1    1711    1710    1712  # H-O-H
    433    1    1714    1713    1715  # H-O-H
    434    1    1717    1716    1718  # H-O-H
    435    1    1720    1719    1721  # H-O-H
    436    1    1723    1722    1724  # H-O-H
    437    1    1726    1725    1727  # H-O-H
    438    1    1729    1728    1730  # H-O-H
    439    1    1732    1731    1733  # H-O-H
    440    1    1735    1734    1736  # H-O-H
    441    1    1738    1737    1739  # H-O-H
    442    1    1741    1740    1742  # H-O-H
    443    1    1744    1743    1745  # H-O-H
    444    1    1747    1746    1748  # H-O-H
    445    1    1750    1749    1751  # H-O-H
    446    1    1753    1752    1754  # H-O-H
    447    1    1756    1755    1757  # H-O-H
    448    1    1759    1758    1760  # H-O-H
    449    1    1762    1761    1763  # H-O-H
    450    1    1765    1764    1766  # H-O-H
    451    1    1768    1767    1769  # H-O-H
    452    1    1771    1770    1772  # H-O-H
    453    1    1774    1773    1775  # H-O-H
    454    1    1777    1776    1778  # H-O-H
    455    1    1780    1779    1781  # H-O-H
    456    1    1783    1782    1784  # H-O-H
    457    1    1786    1785    1787  # H-O-H
    458    1    1789    1788    1790  # H-O-H
    459    1    1792    1791    1793  # H-O-H
    460    1    1795    1794    1796  # H-O-H
    461    1    1798    1797    1799  # H-O-H
    462    1    1801    1800    1802  # H-O-H
    463    1    1804    1803    1805  # H-O-H
    464    1    1807    1806    1808  # H-O-H
    465    1    1810    1809    1811  # H-O-H
    466    1    1813    1812    1814  # H-O-H
    467    1    1816    1815    1817  # H-O-H
    468    1    1819    1818    1820  # H-O-H
    469    1    1822    1821    1823  # H-O-H
    470    1    1825    1824    1826  # H-O-H
    471    1    1828    1827    1829  # H-O-H
    472    1    1831    1830    1832  # H-O-H
    473    1    1834    1833    1835  # H-O-H
    474    1    1837    1836    1838  # H-O-H
    475    1    1840    1839    1841  # H-O-H
    476    1    1843    1842    1844  # H-O-H
    477    1    1846    1845    1847  # H-O-H
    478    1    1849    1848    1850  # H-O-H
    479    1    1852    1851    1853  # H-O-H
    480    1    1855    1854    1856  # H-O-H
    481    1    1858    1857    1859  # H-O-H
    482    1    1861    1860    1862  # H-O-H
    483    1    1864    1863    1865  # H-O-H
    484    1    1867    1866    1868  # H-O-H
    485    1    1870    1869    1871  # H-O-H
    486    1    1873    1872    1874  # H-O-H
    487    1    1876    1875    1877  # H-O-H
    488    1    1879    1878    1880  # H-O-H
    489    1    1882    1881    1883  # H-O-H
    490    1    1885    1884    1886  # H-O-H
    491    1    1888    1887    1889  # H-O-H
    492    1    1891    1890    1892  # H-O-H
    493    1    1894    1893    1895  # H-O-H
    494    1    1897    1896    1898  # H-O-H
    495    1    1900    1899    1901  # H-O-H
    496    1    1903    1902    1904  # H-O-H
    497    1    1906    1905    1907  # H-O-H
    498    1    1909    1908    1910  # H-O-H
    499    1    1912    1911    1913  # H-O-H
    500    1    1915    1914    1916  # H-O-H
    501    1    1918    1917    1919  # H-O-H
    502    1    1921    1920    1922  # H-O-H
    503    1    1924    1923    1925  # H-O-H
    504    1    1927    1926    1928  # H-O-H
    505    1    1930    1929    1931  # H-O-H
    506    1    1933    1932    1934  # H-O-H
    507    1    1936    1935    1937  # H-O-H
    508    1    1939    1938    1940  # H-O-H
    509    1    1942    1941    1943  # H-O-H
    510    1    1945    1944    1946  # H-O-H
    511    1    1948    1947    1949  # H-O-H
    512    1    1951    1950    1952  # H-O-H
    513    1    1954    1953    1955  # H-O-H
    514    1    1957    1956    1958  # H-O-H
    515    1    1960    1959    1961  # H-O-H
    516    1    1963    1962    1964  # H-O-H
    517    1    1966    1965    1967  # H-O-H
    518    1    1969    1968    1970  # H-O-H
    519    1    1972    1971    1973  # H-O-H
    520    1    1975    1974    1976  # H-O-H
    521    1    1978    1977    1979  # H-O-H
    522    1    1981    1980    1982  # H-O-H
    523    1    1984    1983    1985  # H-O-H
    524    1    1987    1986    1988  # H-O-H
    525    1    1990    1989    1991  # H-O-H
    526    1    1993    1992    1994  # H-O-H
    527    1    1996    1995    1997  # H-O-H
    528    1    1999    1998    2000  # H-O-H
    529    1    2002    2001    2003  # H-O-H
    530    1    2005    2004    2006  # H-O-H
    531    1    2008    2007    2009  # H-O-H
    532    1    2011    2010    2012  # H-O-H
    533    1    2014    2013    2015  # H-O-H
    534    1    2017    2016    2018  # H-O-H
    535    1    2020    2019    2021  # H-O-H
    536    1    2023    2022    2024  # H-O-H
    537    1    2026    2025    2027  # H-O-H
    538    1    2029    2028    2030  # H-O-H
    539    1    2032    2031    2033  # H-O-H
    540    1    2035    2034    2036  # H-O-H
    541    1    2038    2037    2039  # H-O-H
    542    1    2041    2040    2042  # H-O-H
    543    1    2044    2043    2045  # H-O-H
    544    1    2047    2046    2048  # H-O-H
    545    1    2050    2049    2051  # H-O-H
    546    1    2053    2052    2054  # H-O-H
    547    1    2056    2055    2057  # H-O-H
    548    1    2059    2058    2060  # H-O-H
    549    1    2062    2061    2063  # H-O-H
    550    1    2065    2064    2066  # H-O-H
    551    1    2068    2067    2069  # H-O-H
    552    1    2071    2070    2072  # H-O-H
    553    1    2074    2073    2075  # H-O-H
    554    1    2077    2076    2078  # H-O-H
    555    1    2080    2079    2081  # H-O-H
    556    1    2083    2082    2084  # H-O-H
    557    1    2086    2085    2087  # H-O-H
    558    1    2089    2088    2090  # H-O-H
    559    1    2092    2091    2093  # H-O-H
    560    1    2095    2094    2096  # H-O-H
    561    1    2098    2097    2099  # H-O-H
    562    1    2101    2100    2102  # H-O-H
    563    1    2104    2103    2105  # H-O-H
    564    1    2107    2106    2108  # H-O-H
    565    1    2110    2109    2111  # H-O-H
    566    1    2113    2112    2114  # H-O-H
    567    1    2116    2115    2117  # H-O-H
    568    1    2119    2118    2120  # H-O-H
    569    1    2122    2121    2123  # H-O-H
    570    1    2125    2124    2126  # H-O-H
    571    1    2128    2127    2129  # H-O-H
    572    1    2131    2130    2132  # H-O-H
    573    1    2134    2133    2135  # H-O-H
    574    1    2137    2136    2138  # H-O-H
    575    1    2140    2139    2141  # H-O-H
    576    1    2143    2142    2144  # H-O-H
    577    1    2146    2145    2147  # H-O-H
    578    1    2149    2148    2150  # H-O-H
    579    1    2152    2151    2153  # H-O-H
    580    1    2155    2154    2156  # H-O-H
    581    1    2158    2157    2159  # H-O-H
    582    1    2161    2160    2162  # H-O-H
    583    1    2164    2163    2165  # H-O-H
    584    1    2167    2166    2168  # H-O-H
    585    1    2170    2169    2171  # H-O-H
    586    1    2173    2172    2174  # H-O-H
    587    1    2176    2175    2177  # H-O-H
    588    1    2179    2178    2180  # H-O-H
    589    1    2182    2181    2183  # H-O-H
    590    1    2185    2184    2186  # H-O-H
    591    1    2188    2187    2189  # H-O-H
    592    1    2191    2190    2192  # H-O-H
    593    1    2194    2193    2195  # H-O-H
    594    1    2197    2196    2198  # H-O-H
    595    1    2200    2199    2201  # H-O-H
    596    1    2203    2202    2204  # H-O-H
    597    1    2206    2205    2207  # H-O-H
    598    1    2209    2208    2210  # H-O-H
    599    1    2212    2211    2213  # H-O-H
    600    1    2215    2214    2216  # H-O-H
    601    1    2218    2217    2219  # H-O-H
    602    1    2221    2220    2222  # H-O-H
    603    1    2224    2223    2225  # H-O-H
    604    1    2227    2226    2228  # H-O-H
    605    1    2230    2229    2231  # H-O-H
    606    1    2233    2232    2234  # H-O-H
    607    1    2236    2235    2237  # H-O-H
    608    1    2239    2238    2240  # H-O-H
    609    1    2242    2241    2243  # H-O-H
    610    1    2245    2244    2246  # H-O-H
    611    1    2248    2247    2249  # H-O-H
    612    1    2251    2250    2252  # H-O-H
    613    1    2254    2253    2255  # H-O-H
    614    1    2257    2256    2258  # H-O-H
    615    1    2260    2259    2261  # H-O-H
    616    1    2263    2262    2264  # H-O-H
    617    1    2266    2265    2267  # H-O-H
    618    1    2269    2268    2270  # H-O-H
    619    1    2272    2271    2273  # H-O-H
    620    1    2275    2274    2276  # H-O-H
    621    1    2278    2277    2279  # H-O-H
    622    1    2281    2280    2282  # H-O-H
    623    1    2284    2283    2285  # H-O-H
    624    1    2287    2286    2288  # H-O-H
    625    1    2290    2289    2291  # H-O-H
    626    1    2293    2292    2294  # H-O-H
    627    1    2296    2295    2297  # H-O-H
    628    1    2299    2298    2300  # H-O-H
    629    1    2302    2301    2303  # H-O-H
    630    1    2305    2304    2306  # H-O-H
    631    1    2308    2307    2309  # H-O-H
    632    1    2311    2310    2312  # H-O-H
    633    1    2314    2313    2315  # H-O-H
    634    1    2317    2316    2318  # H-O-H
    635    1    2320    2319    2321  # H-O-H
    636    1    2323    2322    2324  # H-O-H
    637    1    2326    2325    2327  # H-O-H
    638    1    2329    2328    2330  # H-O-H
    639    1    2332    2331    2333  # H-O-H
    640    1    2335    2334    2336  # H-O-H
    641    1    2338    2337    2339  # H-O-H
    642    1    2341    2340    2342  # H-O-H
    643    1    2344    2343    2345  # H-O-H
    644    1    2347    2346    2348  # H-O-H
    645    1    2350    2349    2351  # H-O-H
    646    1    2353    2352    2354  # H-O-H
    647    1    2356    2355    2357  # H-O-H
    648    1    2359    2358    2360  # H-O-H
    649    1    2362    2361    2363  # H-O-H
    650    1    2365    2364    2366  # H-O-H
    651    1    2368    2367    2369  # H-O-H
    652    1    2371    2370    2372  # H-O-H
    653    1    2374    2373    2375  # H-O-H
    654    1    2377    2376    2378  # H-O-H
    655    1    2380    2379    2381  # H-O-H
    656    1    2383    2382    2384  # H-O-H
    657    1    2386    2385    2387  # H-O-H
    658    1    2389    2388    2390  # H-O-H
    659    1    2392    2391    2393  # H-O-H
    660    1    2395    2394    2396  # H-O-H
    661    1    2398    2397    2399  # H-O-H
    662    1    2401    2400    2402  # H-O-H
    663    1    2404    2403    2405  # H-O-H
    664    1    2407    2406    2408  # H-O-H
    665    1    2410    2409    2411  # H-O-H
    666    1    2413    2412    2414  # H-O-H
    667    1    2416    2415    2417  # H-O-H
    668    1    2419    2418    2420  # H-O-H
    669    1    2422    2421    2423  # H-O-H
    670    1    2425    2424    2426  # H-O-H
    671    1    2428    2427    2429  # H-O-H
    672    1    2431    2430    2432  # H-O-H
    673    1    2434    2433    2435  # H-O-H
    674    1    2437    2436    2438  # H-O-H
    675    1    2440    2439    2441  # H-O-H
    676    1    2443    2442    2444  # H-O-H
    677    1    2446    2445    2447  # H-O-H
    678    1    2449    2448    2450  # H-O-H
    679    1    2452    2451    2453  # H-O-H
    680    1    2455    2454    2456  # H-O-H
    681    1    2458    2457    2459  # H-O-H
    682    1    2461    2460    2462  # H-O-H
    683    1    2464    2463    2465  # H-O-H
    684    1    2467    2466    2468  # H-O-H
    685    1    2470    2469    2471  # H-O-H
    686    1    2473    2472    2474  # H-O-H
    687    1    2476    2475    2477  # H-O-H
    688    1    2479    2478    2480  # H-O-H
    689    1    2482    2481    2483  # H-O-H
    690    1    2485    2484    2486  # H-O-H
    691    1    2488    2487    2489  # H-O-H
    692    1    2491    2490    2492  # H-O-H
    693    1    2494    2493    2495  # H-O-H
    694    1    2497    2496    2498  # H-O-H
    695    1    2500    2499    2501  # H-O-H
    696    1    2503    2502    2504  # H-O-H
    697    1    2506    2505    2507  # H-O-H
    698    1    2509    2508    2510  # H-O-H
    699    1    2512    2511    2513  # H-O-H
    700    1    2515    2514    2516  # H-O-H
    701    1    2518    2517    2519  # H-O-H
    702    1    2521    2520    2522  # H-O-H
    703    1    2524    2523    2525  # H-O-H
    704    1    2527    2526    2528  # H-O-H
    705    1    2530    2529    2531  # H-O-H
    706    1    2533    2532    2534  # H-O-H
    707    1    2536    2535    2537  # H-O-H
    708    1    2539    2538    2540  # H-O-H
    709    1    2542    2541    2543  # H-O-H
    710    1    2545    2544    2546  # H-O-H
    711    1    2548    2547    2549  # H-O-H
    712    1    2551    2550    2552  # H-O-H
    713    1    2554    2553    2555  # H-O-H
    714    1    2557    2556    2558  # H-O-H
    715    1    2560    2559    2561  # H-O-H
    716    1    2563    2562    2564  # H-O-H
    717    1    2566    2565    2567  # H-O-H
    718    1    2569    2568    2570  # H-O-H
    719    1    2572    2571    2573  # H-O-H
    720    1    2575    2574    2576  # H-O-H
    721    1    2578    2577    2579  # H-O-H
    722    1    2581    2580    2582  # H-O-H
    723    1    2584    2583    2585  # H-O-H
    724    1    2587    2586    2588  # H-O-H
    725    1    2590    2589    2591  # H-O-H
    726    1    2593    2592    2594  # H-O-H
    727    1    2596    2595    2597  # H-O-H
    728    1    2599    2598    2600  # H-O-H
    729    1    2602    2601    2603  # H-O-H
    730    1    2605    2604    2606  # H-O-H
    731    1    2608    2607    2609  # H-O-H
    732    1    2611    2610    2612  # H-O-H
    733    1    2614    2613    2615  # H-O-H
    734    1    2617    2616    2618  # H-O-H
    735    1    2620    2619    2621  # H-O-H
    736    1    2623    2622    2624  # H-O-H
    737    1    2626    2625    2627  # H-O-H
    738    1    2629    2628    2630  # H-O-H
    739    1    2632    2631    2633  # H-O-H
    740    1    2635    2634    2636  # H-O-H
    741    1    2638    2637    2639  # H-O-H
    742    1    2641    2640    2642  # H-O-H
    743    1    2644    2643    2645  # H-O-H
    744    1    2647    2646    2648  # H-O-H
    745    1    2650    2649    2651  # H-O-H
    746    1    2653    2652    2654  # H-O-H
    747    1    2656    2655    2657  # H-O-H
    748    1    2659    2658    2660  # H-O-H
    749    1    2662    2661    2663  # H-O-H
    750    1    2665    2664    2666  # H-O-H
    751    1    2668    2667    2669  # H-O-H
    752    1    2671    2670    2672  # H-O-H
    753    1    2674    2673    2675  # H-O-H
    754    1    2677    2676    2678  # H-O-H
    755    1    2680    2679    2681  # H-O-H
    756    1    2683    2682    2684  # H-O-H
    757    1    2686    2685    2687  # H-O-H
    758    1    2689    2688    2690  # H-O-H
    759    1    2692    2691    2693  # H-O-H
    760    1    2695    2694    2696  # H-O-H
    761    1    2698    2697    2699  # H-O-H
    762    1    2701    2700    2702  # H-O-H
    763    1    2704    2703    2705  # H-O-H
    764    1    2707    2706    2708  # H-O-H
    765    1    2710    2709    2711  # H-O-H
    766    1    2713    2712    2714  # H-O-H
    767    1    2716    2715    2717  # H-O-H
    768    1    2719    2718    2720  # H-O-H
    769    1    2722    2721    2723  # H-O-H
    770    1    2725    2724    2726  # H-O-H
    771    1    2728    2727    2729  # H-O-H
    772    1    2731    2730    2732  # H-O-H
    773    1    2734    2733    2735  # H-O-H
    774    1    2737    2736    2738  # H-O-H
    775    1    2740    2739    2741  # H-O-H
    776    1    2743    2742    2744  # H-O-H
    777    1    2746    2745    2747  # H-O-H
    778    1    2749    2748    2750  # H-O-H
    779    1    2752    2751    2753  # H-O-H
    780    1    2755    2754    2756  # H-O-H
    781    1    2758    2757    2759  # H-O-H
    782    1    2761    2760    2762  # H-O-H
    783    1    2764    2763    2765  # H-O-H
    784    1    2767    2766    2768  # H-O-H
    785    1    2770    2769    2771  # H-O-H
    786    1    2773    2772    2774  # H-O-H
    787    1    2776    2775    2777  # H-O-H
    788    1    2779    2778    2780  # H-O-H
    789    1    2782    2781    2783  # H-O-H
    790    1    2785    2784    2786  # H-O-H
    791    1    2788    2787    2789  # H-O-H
    792    1    2791    2790    2792  # H-O-H
    793    1    2794    2793    2795  # H-O-H
    794    1    2797    2796    2798  # H-O-H
    795    1    2800    2799    2801  # H-O-H
    796    1    2803    2802    2804  # H-O-H
    797    1    2806    2805    2807  # H-O-H
    798    1    2809    2808    2810  # H-O-H
    799    1    2812    2811    2813  # H-O-H
    800    1    2815    2814    2816  # H-O-H
    801    1    2818    2817    2819  # H-O-H
    802    1    2821    2820    2822  # H-O-H
    803    1    2824    2823    2825  # H-O-H
    804    1    2827    2826    2828  # H-O-H
    805    1    2830    2829    2831  # H-O-H
    806    1    2833    2832    2834  # H-O-H
    807    1    2836    2835    2837  # H-O-H
    808    1    2839    2838    2840  # H-O-H
    809    1    2842    2841    2843  # H-O-H
    810    1    2845    2844    2846  # H-O-H
    811    1    2848    2847    2849  # H-O-H
    812    1    2851    2850    2852  # H-O-H
    813    1    2854    2853    2855  # H-O-H
    814    1    2857    2856    2858  # H-O-H
    815    1    2860    2859    2861  # H-O-H
    816    1    2863    2862    2864  # H-O-H
    817    1    2866    2865    2867  # H-O-H
    818    1    2869    2868    2870  # H-O-H
    819    1    2872    2871    2873  # H-O-H
    820    1    2875    2874    2876  # H-O-H
    821    1    2878    2877    2879  # H-O-H
    822    1    2881    2880    2882  # H-O-H
    823    1    2884    2883    2885  # H-O-H
    824    1    2887    2886    2888  # H-O-H
    825    1    2890    2889    2891  # H-O-H
    826    1    2893    2892    2894  # H-O-H
    827    1    2896    2895    2897  # H-O-H
    828    1    2899    2898    2900  # H-O-H
    829    1    2902    2901    2903  # H-O-H
    830    1    2905    2904    2906  # H-O-H
    831    1    2908    2907    2909  # H-O-H
    832    1    2911    2910    2912  # H-O-H
    833    1    2914    2913    2915  # H-O-H
    834    1    2917    2916    2918  # H-O-H
    835    1    2920    2919    2921  # H-O-H
    836    1    2923    2922    2924  # H-O-H
    837    1    2926    2925    2927  # H-O-H
    838    1    2929    2928    2930  # H-O-H
    839    1    2932    2931    2933  # H-O-H
    840    1    2935    2934    2936  # H-O-H
    841    1    2938    2937    2939  # H-O-H
    842    1    2941    2940    2942  # H-O-H
    843    1    2944    2943    2945  # H-O-H
    844    1    2947    2946    2948  # H-O-H
    845    1    2950    2949    2951  # H-O-H
    846    1    2953    2952    2954  # H-O-H
    847    1    2956    2955    2957  # H-O-H
    848    1    2959    2958    2960  # H-O-H
    849    1    2962    2961    2963  # H-O-H
    850    1    2965    2964    2966  # H-O-H
    851    1    2968    2967    2969  # H-O-H
    852    1    2971    2970    2972  # H-O-H
    853    1    2974    2973    2975  # H-O-H
    854    1    2977    2976    2978  # H-O-H
    855    1    2980    2979    2981  # H-O-H
    856    1    2983    2982    2984  # H-O-H
    857    1    2986    2985    2987  # H-O-H
    858    1    2989    2988    2990  # H-O-H
    859    1    2992    2991    2993  # H-O-H
    860    1    2995    2994    2996  # H-O-H
    861    1    2998    2997    2999  # H-O-H
    862    1    3001    3000    3002  # H-O-H
    863    1    3004    3003    3005  # H-O-H
    864    1    3007    3006    3008  # H-O-H
    865    1    3010    3009    3011  # H-O-H
    866    1    3013    3012    3014  # H-O-H
    867    1    3016    3015    3017  # H-O-H
    868    1    3019    3018    3020  # H-O-H
    869    1    3022    3021    3023  # H-O-H
    870    1    3025    3024    3026  # H-O-H
    871    1    3028    3027    3029  # H-O-H
    872    1    3031    3030    3032  # H-O-H
    873    1    3034    3033    3035  # H-O-H
    874    1    3037    3036    3038  # H-O-H
    875    1    3040    3039    3041  # H-O-H
    876    1    3043    3042    3044  # H-O-H
    877    1    3046    3045    3047  # H-O-H
    878    1    3049    3048    3050  # H-O-H
    879    1    3052    3051    3053  # H-O-H
    880    1    3055    3054    3056  # H-O-H
    881    1    3058    3057    3059  # H-O-H
    882    1    3061    3060    3062  # H-O-H
    883    1    3064    3063    3065  # H-O-H
    884    1    3067    3066    3068  # H-O-H
    885    1    3070    3069    3071  # H-O-H
    886    1    3073    3072    3074  # H-O-H
    887    1    3076    3075    3077  # H-O-H
    888    1    3079    3078    3080  # H-O-H
    889    1    3082    3081    3083  # H-O-H
    890    1    3085    3084    3086  # H-O-H
    891    1    3088    3087    3089  # H-O-H
    892    1    3091    3090    3092  # H-O-H
    893    1    3094    3093    3095  # H-O-H
    894    1    3097    3096    3098  # H-O-H
    895    1    3100    3099    3101  # H-O-H
    896    1    3103    3102    3104  # H-O-H
    897    1    3106    3105    3107  # H-O-H
    898    1    3109    3108    3110  # H-O-H
    899    1    3112    3111    3113  # H-O-H
    900    1    3115    3114    3116  # H-O-H
    901    1    3118    3117    3119  # H-O-H
    902    1    3121    3120    3122  # H-O-H
    903    1    3124    3123    3125  # H-O-H
    904    1    3127    3126    3128  # H-O-H
    905    1    3130    3129    3131  # H-O-H
    906    1    3133    3132    3134  # H-O-H
    907    1    3136    3135    3137  # H-O-H
    908    1    3139    3138    3140  # H-O-H
    909    1    3142    3141    3143  # H-O-H
    910    1    3145    3144    3146  # H-O-H
    911    1    3148    3147    3149  # H-O-H
    912    1    3151    3150    3152  # H-O-H
    913    1    3154    3153    3155  # H-O-H
    914    1    3157    3156    3158  # H-O-H
    915    1    3160    3159    3161  # H-O-H
    916    1    3163    3162    3164  # H-O-H
    917    1    3166    3165    3167  # H-O-H
    918    1    3169    3168    3170  # H-O-H
    919    1    3172    3171    3173  # H-O-H
    920    1    3175    3174    3176  # H-O-H
    921    1    3178    3177    3179  # H-O-H
    922    1    3181    3180    3182  # H-O-H
    923    1    3184    3183    3185  # H-O-H
    924    1    3187    3186    3188  # H-O-H
    925    1    3190    3189    3191  # H-O-H
    926    1    3193    3192    3194  # H-O-H
    927    1    3196    3195    3197  # H-O-H
    928    1    3199    3198    3200  # H-O-H
    929    1    3202    3201    3203  # H-O-H
    930    1    3205    3204    3206  # H-O-H
    931    1    3208    3207    3209  # H-O-H
    932    1    3211    3210    3212  # H-O-H
    933    1    3214    3213    3215  # H-O-H
    934    1    3217    3216    3218  # H-O-H
    935    1    3220    3219    3221  # H-O-H
    936    1    3223    3222    3224  # H-O-H
    937    1    3226    3225    3227  # H-O-H
    938    1    3229    3228    3230  # H-O-H
    939    1    3232    3231    3233  # H-O-H
    940    1    3235    3234    3236  # H-O-H
    941    1    3238    3237    3239  # H-O-H
    942    1    3241    3240    3242  # H-O-H
    943    1    3244    3243    3245  # H-O-H
    944    1    3247    3246    3248  # H-O-H
    945    1    3250    3249    3251  # H-O-H
    946    1    3253    3252    3254  # H-O-H
    947    1    3256    3255    3257  # H-O-H
    948    1    3259    3258    3260  # H-O-H
    949    1    3262    3261    3263  # H-O-H
    950    1    3265    3264    3266  # H-O-H
    951    1    3268    3267    3269  # H-O-H
    952    1    3271    3270    3272  # H-O-H
    953    1    3274    3273    3275  # H-O-H
    954    1    3277    3276    3278  # H-O-H
    955    1    3280    3279    3281  # H-O-H
    956    1    3283    3282    3284  # H-O-H
    957    1    3286    3285    3287  # H-O-H
    958    1    3289    3288    3290  # H-O-H
    959    1    3292    3291    3293  # H-O-H
    960    1    3295    3294    3296  # H-O-H
    961    1    3298    3297    3299  # H-O-H
    962    1    3301    3300    3302  # H-O-H
    963    1    3304    3303    3305  # H-O-H
    964    1    3307    3306    3308  # H-O-H
    965    1    3310    3309    3311  # H-O-H
    966    1    3313    3312    3314  # H-O-H
    967    1    3316    3315    3317  # H-O-H
    968    1    3319    3318    3320  # H-O-H
    969    1    3322    3321    3323  # H-O-H
    970    1    3325    3324    3326  # H-O-H
    971    1    3328    3327    3329  # H-O-H
    972    1    3331    3330    3332  # H-O-H
    973    1    3334    3333    3335  # H-O-H
    974    1    3337    3336    3338  # H-O-H
    975    1    3340    3339    3341  # H-O-H
    976    1    3343    3342    3344  # H-O-H
    977    1    3346    3345    3347  # H-O-H
    978    1    3349    3348    3350  # H-O-H
    979    1    3352    3351    3353  # H-O-H
    980    1    3355    3354    3356  # H-O-H
    981    1    3358    3357    3359  # H-O-H
    982    1    3361    3360    3362  # H-O-H
    983    1    3364    3363    3365  # H-O-H
    984    1    3367    3366    3368  # H-O-H
    985    1    3370    3369    3371  # H-O-H
    986    1    3373    3372    3374  # H-O-H
    987    1    3376    3375    3377  # H-O-H
    988    1    3379    3378    3380  # H-O-H
    989    1    3382    3381    3383  # H-O-H
    990    1    3385    3384    3386  # H-O-H
    991    1    3388    3387    3389  # H-O-H
    992    1    3391    3390    3392  # H-O-H
    993    1    3394    3393    3395  # H-O-H
    994    1    3397    3396    3398  # H-O-H
    995    1    3400    3399    3401  # H-O-H
    996    1    3403    3402    3404  # H-O-H
    997    1    3406    3405    3407  # H-O-H
    998    1    3409    3408    3410  # H-O-H
    999    1    3412    3411    3413  # H-O-H
   1000    1    3415    3414    3416  # H-O-H
   1001    1    3418    3417    3419  # H-O-H
   1002    1    3421    3420    3422  # H-O-H
   1003    1    3424    3423    3425  # H-O-H
   1004    1    3427    3426    3428  # H-O-H
   1005    1    3430    3429    3431  # H-O-H
   1006    1    3433    3432    3434  # H-O-H
   1007    1    3436    3435    3437  # H-O-H
   1008    1    3439    3438    3440  # H-O-H
   1009    1    3442    3441    3443  # H-O-H
   1010    1    3445    3444    3446  # H-O-H
   1011    1    3448    3447    3449  # H-O-H
   1012    1    3451    3450    3452  # H-O-H
   1013    1    3454    3453    3455  # H-O-H
   1014    1    3457    3456    3458  # H-O-H
   1015    1    3460    3459    3461  # H-O-H
   1016    1    3463    3462    3464  # H-O-H
   1017    1    3466    3465    3467  # H-O-H
   1018    1    3469    3468    3470  # H-O-H
   1019    1    3472    3471    3473  # H-O-H
   1020    1    3475    3474    3476  # H-O-H
   1021    1    3478    3477    3479  # H-O-H
   1022    1    3481    3480    3482  # H-O-H
   1023    1    3484    3483    3485  # H-O-H
   1024    1    3487    3486    3488  # H-O-H
   1025    1    3490    3489    3491  # H-O-H
   1026    1    3493    3492    3494  # H-O-H
   1027    1    3496    3495    3497  # H-O-H
   1028    1    3499    3498    3500  # H-O-H
   1029    1    3502    3501    3503  # H-O-H
   1030    1    3505    3504    3506  # H-O-H
   1031    1    3508    3507    3509  # H-O-H
   1032    1    3511    3510    3512  # H-O-H
   1033    1    3514    3513    3515  # H-O-H
   1034    1    3517    3516    3518  # H-O-H
   1035    1    3520    3519    3521  # H-O-H
   1036    1    3523    3522    3524  # H-O-H
   1037    1    3526    3525    3527  # H-O-H
   1038    1    3529    3528    3530  # H-O-H
   1039    1    3532    3531    3533  # H-O-H
   1040    1    3535    3534    3536  # H-O-H
   1041    1    3538    3537    3539  # H-O-H
   1042    1    3541    3540    3542  # H-O-H
   1043    1    3544    3543    3545  # H-O-H
   1044    1    3547    3546    3548  # H-O-H
   1045    1    3550    3549    3551  # H-O-H
   1046    1    3553    3552    3554  # H-O-H
   1047    1    3556    3555    3557  # H-O-H
   1048    1    3559    3558    3560  # H-O-H
   1049    1    3562    3561    3563  # H-O-H
   1050    1    3565    3564    3566  # H-O-H
   1051    1    3568    3567    3569  # H-O-H
   1052    1    3571    3570    3572  # H-O-H
   1053    1    3574    3573    3575  # H-O-H
   1054    1    3577    3576    3578  # H-O-H
   1055    1    3580    3579    3581  # H-O-H
   1056    1    3583    3582    3584  # H-O-H
   1057    1    3586    3585    3587  # H-O-H
   1058    1    3589    3588    3590  # H-O-H
   1059    1    3592    3591    3593  # H-O-H
   1060    1    3595    3594    3596  # H-O-H
   1061    1    3598    3597    3599  # H-O-H
   1062    1    3601    3600    3602  # H-O-H
   1063    1    3604    3603    3605  # H-O-H
   1064    1    3607    3606    3608  # H-O-H
   1065    1    3610    3609    3611  # H-O-H
   1066    1    3613    3612    3614  # H-O-H
   1067    1    3616    3615    3617  # H-O-H
   1068    1    3619    3618    3620  # H-O-H
   1069    1    3622    3621    3623  # H-O-H
   1070    1    3625    3624    3626  # H-O-H
   1071    1    3628    3627    3629  # H-O-H
   1072    1    3631    3630    3632  # H-O-H
   1073    1    3634    3633    3635  # H-O-H
   1074    1    3637    3636    3638  # H-O-H
   1075    1    3640    3639    3641  # H-O-H
   1076    1    3643    3642    3644  # H-O-H
   1077    1    3646    3645    3647  # H-O-H
   1078    1    3649    3648    3650  # H-O-H
   1079    1    3652    3651    3653  # H-O-H
   1080    1    3655    3654    3656  # H-O-H
   1081    1    3658    3657    3659  # H-O-H
   1082    1    3661    3660    3662  # H-O-H
   1083    1    3664    3663    3665  # H-O-H
   1084    1    3667    3666    3668  # H-O-H
   1085    1    3670    3669    3671  # H-O-H
   1086    1    3673    3672    3674  # H-O-H
   1087    1    3676    3675    3677  # H-O-H
   1088    1    3679    3678    3680  # H-O-H
   1089    1    3682    3681    3683  # H-O-H
   1090    1    3685    3684    3686  # H-O-H
   1091    1    3688    3687    3689  # H-O-H
   1092    1    3691    3690    3692  # H-O-H
   1093    1    3694    3693    3695  # H-O-H
   1094    1    3697    3696    3698  # H-O-H
   1095    1    3700    3699    3701  # H-O-H
   1096    1    3703    3702    3704  # H-O-H
   1097    1    3706    3705    3707  # H-O-H
   1098    1    3709    3708    3710  # H-O-H
   1099    1    3712    3711    3713  # H-O-H
   1100    1    3715    3714    3716  # H-O-H
   1101    1    3718    3717    3719  # H-O-H
   1102    1    3721    3720    3722  # H-O-H
   1103    1    3724    3723    3725  # H-O-H
   1104    1    3727    3726    3728  # H-O-H
   1105    1    3730    3729    3731  # H-O-H
   1106    1    3733    3732    3734  # H-O-H
   1107    1    3736    3735    3737  # H-O-H
   1108    1    3739    3738    3740  # H-O-H
   1109    1    3742    3741    3743  # H-O-H
   1110    1    3745    3744    3746  # H-O-H
   1111    1    3748    3747    3749  # H-O-H
   1112    1    3751    3750    3752  # H-O-H
   1113    1    3754    3753    3755  # H-O-H
   1114    1    3757    3756    3758  # H-O-H
   1115    1    3760    3759    3761  # H-O-H
   1116    1    3763    3762    3764  # H-O-H
   1117    1    3766    3765    3767  # H-O-H
   1118    1    3769    3768    3770  # H-O-H
   1119    1    3772    3771    3773  # H-O-H
   1120    1    3775    3774    3776  # H-O-H
   1121    1    3778    3777    3779  # H-O-H
   1122    1    3781    3780    3782  # H-O-H
   1123    1    3784    3783    3785  # H-O-H
   1124    1    3787    3786    3788  # H-O-H
   1125    1    3790    3789    3791  # H-O-H
   1126    1    3793    3792    3794  # H-O-H
   1127    1    3796    3795    3797  # H-O-H
   1128    1    3799    3798    3800  # H-O-H
   1129    1    3802    3801    3803  # H-O-H
   1130    1    3805    3804    3806  # H-O-H
   1131    1    3808    3807    3809  # H-O-H
   1132    1    3811    3810    3812  # H-O-H
   1133    1    3814    3813    3815  # H-O-H
   1134    1    3817    3816    3818  # H-O-H
   1135    1    3820    3819    3821  # H-O-H
   1136    1    3823    3822    3824  # H-O-H
   1137    1    3826    3825    3827  # H-O-H
   1138    1    3829    3828    3830  # H-O-H
   1139    1    3832    3831    3833  # H-O-H
   1140    1    3835    3834    3836  # H-O-H
   1141    1    3838    3837    3839  # H-O-H
   1142    1    3841    3840    3842  # H-O-H
   1143    1    3844    3843    3845  # H-O-H
   1144    1    3847    3846    3848  # H-O-H
   1145    1    3850    3849    3851  # H-O-H
   1146    1    3853    3852    3854  # H-O-H
   1147    1    3856    3855    3857  # H-O-H
   1148    1    3859    3858    3860  # H-O-H
   1149    1    3862    3861    3863  # H-O-H
   1150    1    3865    3864    3866  # H-O-H
   1151    1    3868    3867    3869  # H-O-H
   1152    1    3871    3870    3872  # H-O-H
   1153    1    3874    3873    3875  # H-O-H
   1154    1    3877    3876    3878  # H-O-H
   1155    1    3880    3879    3881  # H-O-H
   1156    1    3883    3882    3884  # H-O-H
   1157    1    3886    3885    3887  # H-O-H
   1158    1    3889    3888    3890  # H-O-H
   1159    1    3892    3891    3893  # H-O-H
   1160    1    3895    3894    3896  # H-O-H
   1161    1    3898    3897    3899  # H-O-H
   1162    1    3901    3900    3902  # H-O-H
   1163    1    3904    3903    3905  # H-O-H
   1164    1    3907    3906    3908  # H-O-H
   1165    1    3910    3909    3911  # H-O-H
   1166    1    3913    3912    3914  # H-O-H
   1167    1    3916    3915    3917  # H-O-H
   1168    1    3919    3918    3920  # H-O-H
   1169    1    3922    3921    3923  # H-O-H
   1170    1    3925    3924    3926  # H-O-H
   1171    1    3928    3927    3929  # H-O-H
   1172    1    3931    3930    3932  # H-O-H
   1173    1    3934    3933    3935  # H-O-H
   1174    1    3937    3936    3938  # H-O-H
   1175    1    3940    3939    3941  # H-O-H
   1176    1    3943    3942    3944  # H-O-H
   1177    1    3946    3945    3947  # H-O-H
   1178    1    3949    3948    3950  # H-O-H
   1179    1    3952    3951    3953  # H-O-H
   1180    1    3955    3954    3956  # H-O-H
   1181    1    3958    3957    3959  # H-O-H
   1182    1    3961    3960    3962  # H-O-H
   1183    1    3964    3963    3965  # H-O-H
   1184    1    3967    3966    3968  # H-O-H
   1185    1    3970    3969    3971  # H-O-H
   1186    1    3973    3972    3974  # H-O-H
   1187    1    3976    3975    3977  # H-O-H
   1188    1    3979    3978    3980  # H-O-H
   1189    1    3982    3981    3983  # H-O-H
   1190    1    3985    3984    3986  # H-O-H
   1191    1    3988    3987    3989  # H-O-H
   1192    1    3991    3990    3992  # H-O-H
   1193    1    3994    3993    3995  # H-O-H
   1194    1    3997    3996    3998  # H-O-H
   1195    1    4000    3999    4001  # H-O-H
   1196    1    4003    4002    4004  # H-O-H
   1197    1    4006    4005    4007  # H-O-H
   1198    1    4009    4008    4010  # H-O-H
   1199    1    4012    4011    4013  # H-O-H
   1200    1    4015    4014    4016  # H-O-H
   1201    1    4018    4017    4019  # H-O-H
   1202    1    4021    4020    4022  # H-O-H
   1203    1    4024    4023    4025  # H-O-H
   1204    1    4027    4026    4028  # H-O-H
   1205    1    4030    4029    4031  # H-O-H
   1206    1    4033    4032    4034  # H-O-H
   1207    1    4036    4035    4037  # H-O-H
   1208    1    4039    4038    4040  # H-O-H
   1209    1    4042    4041    4043  # H-O-H
   1210    1    4045    4044    4046  # H-O-H
   1211    1    4048    4047    4049  # H-O-H
   1212    1    4051    4050    4052  # H-O-H
   1213    1    4054    4053    4055  # H-O-H
   1214    1    4057    4056    4058  # H-O-H
   1215    1    4060    4059    4061  # H-O-H
   1216    1    4063    4062    4064  # H-O-H
   1217    1    4066    4065    4067  # H-O-H
   1218    1    4069    4068    4070  # H-O-H
   1219    1    4072    4071    4073  # H-O-H
   1220    1    4075    4074    4076  # H-O-H
   1221    1    4078    4077    4079  # H-O-H
   1222    1    4081    4080    4082  # H-O-H
   1223    1    4084    4083    4085  # H-O-H
   1224    1    4087    4086    4088  # H-O-H
   1225    1    4090    4089    4091  # H-O-H
   1226    1    4093    4092    4094  # H-O-H
   1227    1    4096    4095    4097  # H-O-H
   1228    1    4099    4098    4100  # H-O-H
   1229    1    4102    4101    4103  # H-O-H
   1230    1    4105    4104    4106  # H-O-H
   1231    1    4108    4107    4109  # H-O-H
   1232    1    4111    4110    4112  # H-O-H
   1233    1    4114    4113    4115  # H-O-H
   1234    1    4117    4116    4118  # H-O-H
   1235    1    4120    4119    4121  # H-O-H
   1236    1    4123    4122    4124  # H-O-H
   1237    1    4126    4125    4127  # H-O-H
   1238    1    4129    4128    4130  # H-O-H
   1239    1    4132    4131    4133  # H-O-H
   1240    1    4135    4134    4136  # H-O-H
   1241    1    4138    4137    4139  # H-O-H
   1242    1    4141    4140    4142  # H-O-H
   1243    1    4144    4143    4145  # H-O-H
   1244    1    4147    4146    4148  # H-O-H
   1245    1    4150    4149    4151  # H-O-H
   1246    1    4153    4152    4154  # H-O-H
   1247    1    4156    4155    4157  # H-O-H
   1248    1    4159    4158    4160  # H-O-H
   1249    1    4162    4161    4163  # H-O-H
   1250    1    4165    4164    4166  # H-O-H
   1251    1    4168    4167    4169  # H-O-H
   1252    1    4171    4170    4172  # H-O-H
   1253    1    4174    4173    4175  # H-O-H
   1254    1    4177    4176    4178  # H-O-H
   1255    1    4180    4179    4181  # H-O-H
   1256    1    4183    4182    4184  # H-O-H
   1257    1    4186    4185    4187  # H-O-H
   1258    1    4189    4188    4190  # H-O-H
   1259    1    4192    4191    4193  # H-O-H
   1260    1    4195    4194    4196  # H-O-H
   1261    1    4198    4197    4199  # H-O-H
   1262    1    4201    4200    4202  # H-O-H
   1263    1    4204    4203    4205  # H-O-H
   1264    1    4207    4206    4208  # H-O-H
   1265    1    4210    4209    4211  # H-O-H
   1266    1    4213    4212    4214  # H-O-H
   1267    1    4216    4215    4217  # H-O-H
   1268    1    4219    4218    4220  # H-O-H
   1269    1    4222    4221    4223  # H-O-H
   1270    1    4225    4224    4226  # H-O-H
   1271    1    4228    4227    4229  # H-O-H
   1272    1    4231    4230    4232  # H-O-H
   1273    1    4234    4233    4235  # H-O-H
   1274    1    4237    4236    4238  # H-O-H
   1275    1    4240    4239    4241  # H-O-H
   1276    1    4243    4242    4244  # H-O-H
   1277    1    4246    4245    4247  # H-O-H
   1278    1    4249    4248    4250  # H-O-H
   1279    1    4252    4251    4253  # H-O-H
   1280    1    4255    4254    4256  # H-O-H
   1281    1    4258    4257    4259  # H-O-H
   1282    1    4261    4260    4262  # H-O-H
   1283    1    4264    4263    4265  # H-O-H
   1284    1    4267    4266    4268  # H-O-H
   1285    1    4270    4269    4271  # H-O-H
   1286    1    4273    4272    4274  # H-O-H
   1287    1    4276    4275    4277  # H-O-H
   1288    1    4279    4278    4280  # H-O-H
   1289    1    4282    4281    4283  # H-O-H
   1290    1    4285    4284    4286  # H-O-H
   1291    1    4288    4287    4289  # H-O-H
   1292    1    4291    4290    4292  # H-O-H
   1293    1    4294    4293    4295  # H-O-H
   1294    1    4297    4296    4298  # H-O-H
   1295    1    4300    4299    4301  # H-O-H
   1296    1    4303    4302    4304  # H-O-H
   1297    1    4306    4305    4307  # H-O-H
   1298    1    4309    4308    4310  # H-O-H
   1299    1    4312    4311    4313  # H-O-H
   1300    1    4315    4314    4316  # H-O-H
   1301    1    4318    4317    4319  # H-O-H
   1302    1    4321    4320    4322  # H-O-H
   1303    1    4324    4323    4325  # H-O-H
   1304    1    4327    4326    4328  # H-O-H
   1305    1    4330    4329    4331  # H-O-H
   1306    1    4333    4332    4334  # H-O-H
   1307    1    4336    4335    4337  # H-O-H
   1308    1    4339    4338    4340  # H-O-H
   1309    1    4342    4341    4343  # H-O-H
   1310    1    4345    4344    4346  # H-O-H
   1311    1    4348    4347    4349  # H-O-H
   1312    1    4351    4350    4352  # H-O-H
   1313    1    4354    4353    4355  # H-O-H
   1314    1    4357    4356    4358  # H-O-H
   1315    1    4360    4359    4361  # H-O-H
   1316    1    4363    4362    4364  # H-O-H
   1317    1    4366    4365    4367  # H-O-H
   1318    1    4369    4368    4370  # H-O-H
   1319    1    4372    4371    4373  # H-O-H
   1320    1    4375    4374    4376  # H-O-H
   1321    1    4378    4377    4379  # H-O-H
   1322    1    4381    4380    4382  # H-O-H
   1323    1    4384    4383    4385  # H-O-H
   1324    1    4387    4386    4388  # H-O-H
   1325    1    4390    4389    4391  # H-O-H
   1326    1    4393    4392    4394  # H-O-H
   1327    1    4396    4395    4397  # H-O-H
   1328    1    4399    4398    4400  # H-O-H
   1329    1    4402    4401    4403  # H-O-H
   1330    1    4405    4404    4406  # H-O-H
   1331    1    4408    4407    4409  # H-O-H
   1332    1    4411    4410    4412  # H-O-H
   1333    1    4414    4413    4415  # H-O-H
   1334    1    4417    4416    4418  # H-O-H
   1335    1    4420    4419    4421  # H-O-H
   1336    1    4423    4422    4424  # H-O-H
   1337    1    4426    4425    4427  # H-O-H
   1338    1    4429    4428    4430  # H-O-H
   1339    1    4432    4431    4433  # H-O-H
   1340    1    4435    4434    4436  # H-O-H
   1341    1    4438    4437    4439  # H-O-H
   1342    1    4441    4440    4442  # H-O-H
   1343    1    4444    4443    4445  # H-O-H
   1344    1    4447    4446    4448  # H-O-H
   1345    1    4450    4449    4451  # H-O-H
   1346    1    4453    4452    4454  # H-O-H
   1347    1    4456    4455    4457  # H-O-H
   1348    1    4459    4458    4460  # H-O-H
   1349    1    4462    4461    4463  # H-O-H
   1350    1    4465    4464    4466  # H-O-H
   1351    1    4468    4467    4469  # H-O-H
   1352    1    4471    4470    4472  # H-O-H
   1353    1    4474    4473    4475  # H-O-H
   1354    1    4477    4476    4478  # H-O-H
   1355    1    4480    4479    4481  # H-O-H
   1356    1    4483    4482    4484  # H-O-H
   1357    1    4486    4485    4487  # H-O-H
   1358    1    4489    4488    4490  # H-O-H
   1359    1    4492    4491    4493  # H-O-H
   1360    1    4495    4494    4496  # H-O-H
   1361    1    4498    4497    4499  # H-O-H
   1362    1    4501    4500    4502  # H-O-H
   1363    1    4504    4503    4505  # H-O-H
   1364    1    4507    4506    4508  # H-O-H
   1365    1    4510    4509    4511  # H-O-H
   1366    1    4513    4512    4514  # H-O-H
   1367    1    4516    4515    4517  # H-O-H
   1368    1    4519    4518    4520  # H-O-H
   1369    1    4522    4521    4523  # H-O-H
   1370    1    4525    4524    4526  # H-O-H
   1371    1    4528    4527    4529  # H-O-H
   1372    1    4531    4530    4532  # H-O-H
   1373    1    4534    4533    4535  # H-O-H
   1374    1    4537    4536    4538  # H-O-H
   1375    1    4540    4539    4541  # H-O-H
   1376    1    4543    4542    4544  # H-O-H
   1377    1    4546    4545    4547  # H-O-H
   1378    1    4549    4548    4550  # H-O-H
   1379    1    4552    4551    4553  # H-O-H
   1380    1    4555    4554    4556  # H-O-H
   1381    1    4558    4557    4559  # H-O-H
   1382    1    4561    4560    4562  # H-O-H
   1383    1    4564    4563    4565  # H-O-H
   1384    1    4567    4566    4568  # H-O-H
   1385    1    4570    4569    4571  # H-O-H
   1386    1    4573    4572    4574  # H-O-H
   1387    1    4576    4575    4577  # H-O-H
   1388    1    4579    4578    4580  # H-O-H
   1389    1    4582    4581    4583  # H-O-H
   1390    1    4585    4584    4586  # H-O-H
   1391    1    4588    4587    4589  # H-O-H
   1392    1    4591    4590    4592  # H-O-H
   1393    1    4594    4593    4595  # H-O-H
   1394    1    4597    4596    4598  # H-O-H
   1395    1    4600    4599    4601  # H-O-H
   1396    1    4603    4602    4604  # H-O-H
   1397    1    4606    4605    4607  # H-O-H
   1398    1    4609    4608    4610  # H-O-H
   1399    1    4612    4611    4613  # H-O-H
   1400    1    4615    4614    4616  # H-O-H
   1401    1    4618    4617    4619  # H-O-H
   1402    1    4621    4620    4622  # H-O-H
   1403    1    4624    4623    4625  # H-O-H
   1404    1    4627    4626    4628  # H-O-H
   1405    1    4630    4629    4631  # H-O-H
   1406    1    4633    4632    4634  # H-O-H
   1407    1    4636    4635    4637  # H-O-H
   1408    1    4639    4638    4640  # H-O-H
   1409    1    4642    4641    4643  # H-O-H
   1410    1    4645    4644    4646  # H-O-H
   1411    1    4648    4647    4649  # H-O-H
   1412    1    4651    4650    4652  # H-O-H
   1413    1    4654    4653    4655  # H-O-H
   1414    1    4657    4656    4658  # H-O-H
   1415    1    4660    4659    4661  # H-O-H
   1416    1    4663    4662    4664  # H-O-H
   1417    1    4666    4665    4667  # H-O-H
   1418    1    4669    4668    4670  # H-O-H
   1419    1    4672    4671    4673  # H-O-H
   1420    1    4675    4674    4676  # H-O-H
   1421    1    4678    4677    4679  # H-O-H
   1422    1    4681    4680    4682  # H-O-H
   1423    1    4684    4683    4685  # H-O-H
   1424    1    4687    4686    4688  # H-O-H
   1425    1    4690    4689    4691  # H-O-H
   1426    1    4693    4692    4694  # H-O-H
   1427    1    4696    4695    4697  # H-O-H
   1428    1    4699    4698    4700  # H-O-H
   1429    1    4702    4701    4703  # H-O-H
   1430    1    4705    4704    4706  # H-O-H
   1431    1    4708    4707    4709  # H-O-H
   1432    1    4711    4710    4712  # H-O-H
   1433    1    4714    4713    4715  # H-O-H
   1434    1    4717    4716    4718  # H-O-H
   1435    1    4720    4719    4721  # H-O-H
   1436    1    4723    4722    4724  # H-O-H
   1437    1    4726    4725    4727  # H-O-H
   1438    1    4729    4728    4730  # H-O-H
   1439    1    4732    4731    4733  # H-O-H
   1440    1    4735    4734    4736  # H-O-H
   1441    1    4738    4737    4739  # H-O-H
   1442    1    4741    4740    4742  # H-O-H
   1443    1    4744    4743    4745  # H-O-H
   1444    1    4747    4746    4748  # H-O-H
   1445    1    4750    4749    4751  # H-O-H
   1446    1    4753    4752    4754  # H-O-H
   1447    1    4756    4755    4757  # H-O-H
   1448    1    4759    4758    4760  # H-O-H
   1449    1    4762    4761    4763  # H-O-H
   1450    1    4765    4764    4766  # H-O-H
   1451    1    4768    4767    4769  # H-O-H
   1452    1    4771    4770    4772  # H-O-H
   1453    1    4774    4773    4775  # H-O-H
   1454    1    4777    4776    4778  # H-O-H
   1455    1    4780    4779    4781  # H-O-H
   1456    1    4783    4782    4784  # H-O-H
   1457    1    4786    4785    4787  # H-O-H
   1458    1    4789    4788    4790  # H-O-H
   1459    1    4792    4791    4793  # H-O-H
   1460    1    4795    4794    4796  # H-O-H
   1461    1    4798    4797    4799  # H-O-H
   1462    1    4801    4800    4802  # H-O-H
   1463    1    4804    4803    4805  # H-O-H
   1464    1    4807    4806    4808  # H-O-H
   1465    1    4810    4809    4811  # H-O-H
   1466    1    4813    4812    4814  # H-O-H
   1467    1    4816    4815    4817  # H-O-H
   1468    1    4819    4818    4820  # H-O-H
   1469    1    4822    4821    4823  # H-O-H
   1470    1    4825    4824    4826  # H-O-H
   1471    1    4828    4827    4829  # H-O-H
   1472    1    4831    4830    4832  # H-O-H
   1473    1    4834    4833    4835  # H-O-H
   1474    1    4837    4836    4838  # H-O-H
   1475    1    4840    4839    4841  # H-O-H
   1476    1    4843    4842    4844  # H-O-H
   1477    1    4846    4845    4847  # H-O-H
   1478    1    4849    4848    4850  # H-O-H
   1479    1    4852    4851    4853  # H-O-H
   1480    1    4855    4854    4856  # H-O-H
   1481    1    4858    4857    4859  # H-O-H
   1482    1    4861    4860    4862  # H-O-H
   1483    1    4864    4863    4865  # H-O-H
   1484    1    4867    4866    4868  # H-O-H
   1485    1    4870    4869    4871  # H-O-H
   1486    1    4873    4872    4874  # H-O-H
   1487    1    4876    4875    4877  # H-O-H
   1488    1    4879    4878    4880  # H-O-H
   1489    1    4882    4881    4883  # H-O-H
   1490    1    4885    4884    4886  # H-O-H
   1491    1    4888    4887    4889  # H-O-H
   1492    1    4891    4890    4892  # H-O-H
   1493    1    4894    4893    4895  # H-O-H
   1494    1    4897    4896    4898  # H-O-H
   1495    1    4900    4899    4901  # H-O-H
   1496    1    4903    4902    4904  # H-O-H
   1497    1    4906    4905    4907  # H-O-H
   1498    1    4909    4908    4910  # H-O-H
   1499    1    4912    4911    4913  # H-O-H
   1500    1    4915    4914    4916  # H-O-H
   1501    1    4918    4917    4919  # H-O-H
   1502    1    4921    4920    4922  # H-O-H
   1503    1    4924    4923    4925  # H-O-H
   1504    1    4927    4926    4928  # H-O-H
   1505    1    4930    4929    4931  # H-O-H
   1506    1    4933    4932    4934  # H-O-H
   1507    1    4936    4935    4937  # H-O-H
   1508    1    4939    4938    4940  # H-O-H
   1509    1    4942    4941    4943  # H-O-H
   1510    1    4945    4944    4946  # H-O-H
   1511    1    4948    4947    4949  # H-O-H
   1512    1    4951    4950    4952  # H-O-H
   1513    1    4954    4953    4955  # H-O-H
   1514    1    4957    4956    4958  # H-O-H
   1515    1    4960    4959    4961  # H-O-H
   1516    1    4963    4962    4964  # H-O-H
   1517    1    4966    4965    4967  # H-O-H
   1518    1    4969    4968    4970  # H-O-H
   1519    1    4972    4971    4973  # H-O-H
   1520    1    4975    4974    4976  # H-O-H
   1521    1    4978    4977    4979  # H-O-H
   1522    1    4981    4980    4982  # H-O-H
   1523    1    4984    4983    4985  # H-O-H
   1524    1    4987    4986    4988  # H-O-H
   1525    1    4990    4989    4991  # H-O-H
   1526    1    4993    4992    4994  # H-O-H
   1527    1    4996    4995    4997  # H-O-H
   1528    1    4999    4998    5000  # H-O-H
   1529    1    5002    5001    5003  # H-O-H
   1530    1    5005    5004    5006  # H-O-H
   1531    1    5008    5007    5009  # H-O-H
   1532    1    5011    5010    5012  # H-O-H
   1533    1    5014    5013    5015  # H-O-H
   1534    1    5017    5016    5018  # H-O-H
   1535    1    5020    5019    5021  # H-O-H
   1536    1    5023    5022    5024  # H-O-H
   1537    1    5026    5025    5027  # H-O-H
   1538    1    5029    5028    5030  # H-O-H
   1539    1    5032    5031    5033  # H-O-H
   1540    1    5035    5034    5036  # H-O-H
   1541    1    5038    5037    5039  # H-O-H
   1542    1    5041    5040    5042  # H-O-H
   1543    1    5044    5043    5045  # H-O-H
   1544    1    5047    5046    5048  # H-O-H
   1545    1    5050    5049    5051  # H-O-H
   1546    1    5053    5052    5054  # H-O-H
   1547    1    5056    5055    5057  # H-O-H
   1548    1    5059    5058    5060  # H-O-H
   1549    1    5062    5061    5063  # H-O-H
   1550    1    5065    5064    5066  # H-O-H
   1551    1    5068    5067    5069  # H-O-H
   1552    1    5071    5070    5072  # H-O-H
   1553    1    5074    5073    5075  # H-O-H
   1554    1    5077    5076    5078  # H-O-H
   1555    1    5080    5079    5081  # H-O-H
   1556    1    5083    5082    5084  # H-O-H
   1557    1    5086    5085    5087  # H-O-H
   1558    1    5089    5088    5090  # H-O-H
   1559    1    5092    5091    5093  # H-O-H
   1560    1    5095    5094    5096  # H-O-H
   1561    1    5098    5097    5099  # H-O-H
   1562    1    5101    5100    5102  # H-O-H
   1563    1    5104    5103    5105  # H-O-H
   1564    1    5107    5106    5108  # H-O-H
   1565    1    5110    5109    5111  # H-O-H
   1566    1    5113    5112    5114  # H-O-H
   1567    1    5116    5115    5117  # H-O-H
   1568    1    5119    5118    5120  # H-O-H
   1569    1    5122    5121    5123  # H-O-H
   1570    1    5125    5124    5126  # H-O-H
   1571    1    5128    5127    5129  # H-O-H
   1572    1    5131    5130    5132  # H-O-H
   1573    1    5134    5133    5135  # H-O-H
   1574    1    5137    5136    5138  # H-O-H
   1575    1    5140    5139    5141  # H-O-H
   1576    1    5143    5142    5144  # H-O-H
   1577    1    5146    5145    5147  # H-O-H
   1578    1    5149    5148    5150  # H-O-H
   1579    1    5152    5151    5153  # H-O-H
   1580    1    5155    5154    5156  # H-O-H
   1581    1    5158    5157    5159  # H-O-H
   1582    1    5161    5160    5162  # H-O-H
   1583    1    5164    5163    5165  # H-O-H
   1584    1    5167    5166    5168  # H-O-H
   1585    1    5170    5169    5171  # H-O-H
   1586    1    5173    5172    5174  # H-O-H
   1587    1    5176    5175    5177  # H-O-H
   1588    1    5179    5178    5180  # H-O-H
   1589    1    5182    5181    5183  # H-O-H
   1590    1    5185    5184    5186  # H-O-H
   1591    1    5188    5187    5189  # H-O-H
   1592    1    5191    5190    5192  # H-O-H
   1593    1    5194    5193    5195  # H-O-H
   1594    1    5197    5196    5198  # H-O-H
   1595    1    5200    5199    5201  # H-O-H
   1596    1    5203    5202    5204  # H-O-H
   1597    1    5206    5205    5207  # H-O-H
   1598    1    5209    5208    5210  # H-O-H
   1599    1    5212    5211    5213  # H-O-H
   1600    1    5215    5214    5216  # H-O-H
   1601    1    5218    5217    5219  # H-O-H
   1602    1    5221    5220    5222  # H-O-H
   1603    1    5224    5223    5225  # H-O-H
   1604    1    5227    5226    5228  # H-O-H
   1605    1    5230    5229    5231  # H-O-H
   1606    1    5233    5232    5234  # H-O-H
   1607    1    5236    5235    5237  # H-O-H
   1608    1    5239    5238    5240  # H-O-H
   1609    1    5242    5241    5243  # H-O-H
   1610    1    5245    5244    5246  # H-O-H
   1611    1    5248    5247    5249  # H-O-H
   1612    1    5251    5250    5252  # H-O-H
   1613    1    5254    5253    5255  # H-O-H
   1614    1    5257    5256    5258  # H-O-H
   1615    1    5260    5259    5261  # H-O-H
   1616    1    5263    5262    5264  # H-O-H
   1617    1    5266    5265    5267  # H-O-H
   1618    1    5269    5268    5270  # H-O-H
   1619    1    5272    5271    5273  # H-O-H
   1620    1    5275    5274    5276  # H-O-H
   1621    1    5278    5277    5279  # H-O-H
   1622    1    5281    5280    5282  # H-O-H
   1623    1    5284    5283    5285  # H-O-H
   1624    1    5287    5286    5288  # H-O-H
   1625    1    5290    5289    5291  # H-O-H
   1626    1    5293    5292    5294  # H-O-H
   1627    1    5296    5295    5297  # H-O-H
   1628    1    5299    5298    5300  # H-O-H
   1629    1    5302    5301    5303  # H-O-H
   1630    1    5305    5304    5306  # H-O-H
   1631    1    5308    5307    5309  # H-O-H
   1632    1    5311    5310    5312  # H-O-H
   1633    1    5314    5313    5315  # H-O-H
   1634    1    5317    5316    5318  # H-O-H
   1635    1    5320    5319    5321  # H-O-H
   1636    1    5323    5322    5324  # H-O-H
   1637    1    5326    5325    5327  # H-O-H
   1638    1    5329    5328    5330  # H-O-H
   1639    1    5332    5331    5333  # H-O-H
   1640    1    5335    5334    5336  # H-O-H
   1641    1    5338    5337    5339  # H-O-H
   1642    1    5341    5340    5342  # H-O-H
   1643    1    5344    5343    5345  # H-O-H
   1644    1    5347    5346    5348  # H-O-H
   1645    1    5350    5349    5351  # H-O-H
   1646    1    5353    5352    5354  # H-O-H
   1647    1    5356    5355    5357  # H-O-H
   1648    1    5359    5358    5360  # H-O-H
   1649    1    5362    5361    5363  # H-O-H
   1650    1    5365    5364    5366  # H-O-H
   1651    1    5368    5367    5369  # H-O-H
   1652    1    5371    5370    5372  # H-O-H
   1653    1    5374    5373    5375  # H-O-H
   1654    1    5377    5376    5378  # H-O-H
   1655    1    5380    5379    5381  # H-O-H
   1656    1    5383    5382    5384  # H-O-H
   1657    1    5386    5385    5387  # H-O-H
   1658    1    5389    5388    5390  # H-O-H
   1659    1    5392    5391    5393  # H-O-H
   1660    1    5395    5394    5396  # H-O-H
   1661    1    5398    5397    5399  # H-O-H
   1662    1    5401    5400    5402  # H-O-H
   1663    1    5404    5403    5405  # H-O-H
   1664    1    5407    5406    5408  # H-O-H
   1665    1    5410    5409    5411  # H-O-H
   1666    1    5413    5412    5414  # H-O-H
   1667    1    5416    5415    5417  # H-O-H
   1668    1    5419    5418    5420  # H-O-H
   1669    1    5422    5421    5423  # H-O-H
   1670    1    5425    5424    5426  # H-O-H
   1671    1    5428    5427    5429  # H-O-H
   1672    1    5431    5430    5432  # H-O-H
   1673    1    5434    5433    5435  # H-O-H
   1674    1    5437    5436    5438  # H-O-H
   1675    1    5440    5439    5441  # H-O-H
   1676    1    5443    5442    5444  # H-O-H
   1677    1    5446    5445    5447  # H-O-H
   1678    1    5449    5448    5450  # H-O-H
   1679    1    5452    5451    5453  # H-O-H
   1680    1    5455    5454    5456  # H-O-H
   1681    1    5458    5457    5459  # H-O-H
   1682    1    5461    5460    5462  # H-O-H
   1683    1    5464    5463    5465  # H-O-H
   1684    1    5467    5466    5468  # H-O-H
   1685    1    5470    5469    5471  # H-O-H
   1686    1    5473    5472    5474  # H-O-H
   1687    1    5476    5475    5477  # H-O-H
   1688    1    5479    5478    5480  # H-O-H
   1689    1    5482    5481    5483  # H-O-H
   1690    1    5485    5484    5486  # H-O-H
   1691    1    5488    5487    5489  # H-O-H
   1692    1    5491    5490    5492  # H-O-H
   1693    1    5494    5493    5495  # H-O-H
   1694    1    5497    5496    5498  # H-O-H
   1695    1    5500    5499    5501  # H-O-H
   1696    1    5503    5502    5504  # H-O-H
   1697    1    5506    5505    5507  # H-O-H
   1698    1    5509    5508    5510  # H-O-H
   1699    1    5512    5511    5513  # H-O-H
   1700    1    5515    5514    5516  # H-O-H
   1701    1    5518    5517    5519  # H-O-H
   1702    1    5521    5520    5522  # H-O-H
   1703    1    5524    5523    5525  # H-O-H
   1704    1    5527    5526    5528  # H-O-H
   1705    1    5530    5529    5531  # H-O-H
   1706    1    5533    5532    5534  # H-O-H
   1707    1    5536    5535    5537  # H-O-H
   1708    1    5539    5538    5540  # H-O-H
   1709    1    5542    5541    5543  # H-O-H
   1710    1    5545    5544    5546  # H-O-H
   1711    1    5548    5547    5549  # H-O-H
   1712    1    5551    5550    5552  # H-O-H
   1713    1    5554    5553    5555  # H-O-H
   1714    1    5557    5556    5558  # H-O-H
   1715    1    5560    5559    5561  # H-O-H
   1716    1    5563    5562    5564  # H-O-H
   1717    1    5566    5565    5567  # H-O-H
   1718    1    5569    5568    5570  # H-O-H
   1719    1    5572    5571    5573  # H-O-H
   1720    1    5575    5574    5576  # H-O-H
   1721    1    5578    5577    5579  # H-O-H
   1722    1    5581    5580    5582  # H-O-H
   1723    1    5584    5583    5585  # H-O-H
   1724    1    5587    5586    5588  # H-O-H
   1725    1    5590    5589    5591  # H-O-H
   1726    1    5593    5592    5594  # H-O-H
   1727    1    5596    5595    5597  # H-O-H
   1728    1    5599    5598    5600  # H-O-H
   1729    1    5602    5601    5603  # H-O-H
   1730    1    5605    5604    5606  # H-O-H
   1731    1    5608    5607    5609  # H-O-H
   1732    1    5611    5610    5612  # H-O-H
   1733    1    5614    5613    5615  # H-O-H
   1734    1    5617    5616    5618  # H-O-H
   1735    1    5620    5619    5621  # H-O-H
   1736    1    5623    5622    5624  # H-O-H
   1737    1    5626    5625    5627  # H-O-H
   1738    1    5629    5628    5630  # H-O-H
   1739    1    5632    5631    5633  # H-O-H
   1740    1    5635    5634    5636  # H-O-H
   1741    1    5638    5637    5639  # H-O-H
   1742    1    5641    5640    5642  # H-O-H
   1743    1    5644    5643    5645  # H-O-H
   1744    1    5647    5646    5648  # H-O-H
   1745    1    5650    5649    5651  # H-O-H
   1746    1    5653    5652    5654  # H-O-H
   1747    1    5656    5655    5657  # H-O-H
   1748    1    5659    5658    5660  # H-O-H
   1749    1    5662    5661    5663  # H-O-H
   1750    1    5665    5664    5666  # H-O-H
   1751    1    5668    5667    5669  # H-O-H
   1752    1    5671    5670    5672  # H-O-H
   1753    1    5674    5673    5675  # H-O-H
   1754    1    5677    5676    5678  # H-O-H
   1755    1    5680    5679    5681  # H-O-H
   1756    1    5683    5682    5684  # H-O-H
   1757    1    5686    5685    5687  # H-O-H
   1758    1    5689    5688    5690  # H-O-H
   1759    1    5692    5691    5693  # H-O-H
   1760    1    5695    5694    5696  # H-O-H
   1761    1    5698    5697    5699  # H-O-H
   1762    1    5701    5700    5702  # H-O-H
   1763    1    5704    5703    5705  # H-O-H
   1764    1    5707    5706    5708  # H-O-H
   1765    1    5710    5709    5711  # H-O-H
   1766    1    5713    5712    5714  # H-O-H
   1767    1    5716    5715    5717  # H-O-H
   1768    1    5719    5718    5720  # H-O-H
   1769    1    5722    5721    5723  # H-O-H
   1770    1    5725    5724    5726  # H-O-H
   1771    1    5728    5727    5729  # H-O-H
   1772    1    5731    5730    5732  # H-O-H
   1773    1    5734    5733    5735  # H-O-H
   1774    1    5737    5736    5738  # H-O-H
   1775    1    5740    5739    5741  # H-O-H
   1776    1    5743    5742    5744  # H-O-H
   1777    1    5746    5745    5747  # H-O-H
   1778    1    5749    5748    5750  # H-O-H
   1779    1    5752    5751    5753  # H-O-H
   1780    1    5755    5754    5756  # H-O-H
   1781    1    5758    5757    5759  # H-O-H
   1782    1    5761    5760    5762  # H-O-H
   1783    1    5764    5763    5765  # H-O-H
   1784    1    5767    5766    5768  # H-O-H
   1785    1    5770    5769    5771  # H-O-H
   1786    1    5773    5772    5774  # H-O-H
   1787    1    5776    5775    5777  # H-O-H
   1788    1    5779    5778    5780  # H-O-H
   1789    1    5782    5781    5783  # H-O-H
   1790    1    5785    5784    5786  # H-O-H
   1791    1    5788    5787    5789  # H-O-H
   1792    1    5791    5790    5792  # H-O-H
   1793    1    5794    5793    5795  # H-O-H
   1794    1    5797    5796    5798  # H-O-H
   1795    1    5800    5799    5801  # H-O-H
   1796    1    5803    5802    5804  # H-O-H
   1797    1    5806    5805    5807  # H-O-H
   1798    1    5809    5808    5810  # H-O-H
   1799    1    5812    5811    5813  # H-O-H
   1800    1    5815    5814    5816  # H-O-H
   1801    1    5818    5817    5819  # H-O-H
   1802    1    5821    5820    5822  # H-O-H
   1803    1    5824    5823    5825  # H-O-H
   1804    1    5827    5826    5828  # H-O-H
   1805    1    5830    5829    5831  # H-O-H
   1806    1    5833    5832    5834  # H-O-H
   1807    1    5836    5835    5837  # H-O-H
   1808    1    5839    5838    5840  # H-O-H
   1809    1    5842    5841    5843  # H-O-H
   1810    1    5845    5844    5846  # H-O-H
   1811    1    5848    5847    5849  # H-O-H
   1812    1    5851    5850    5852  # H-O-H
   1813    1    5854    5853    5855  # H-O-H
   1814    1    5857    5856    5858  # H-O-H
   1815    1    5860    5859    5861  # H-O-H
   1816    1    5863    5862    5864  # H-O-H
   1817    1    5866    5865    5867  # H-O-H
   1818    1    5869    5868    5870  # H-O-H
   1819    1    5872    5871    5873  # H-O-H
   1820    1    5875    5874    5876  # H-O-H
   1821    1    5878    5877    5879  # H-O-H
   1822    1    5881    5880    5882  # H-O-H
   1823    1    5884    5883    5885  # H-O-H
   1824    1    5887    5886    5888  # H-O-H
   1825    1    5890    5889    5891  # H-O-H
   1826    1    5893    5892    5894  # H-O-H
   1827    1    5896    5895    5897  # H-O-H
   1828    1    5899    5898    5900  # H-O-H
   1829    1    5902    5901    5903  # H-O-H
   1830    1    5905    5904    5906  # H-O-H
   1831    1    5908    5907    5909  # H-O-H
   1832    1    5911    5910    5912  # H-O-H
   1833    1    5914    5913    5915  # H-O-H
   1834    1    5917    5916    5918  # H-O-H
   1835    1    5920    5919    5921  # H-O-H
   1836    1    5923    5922    5924  # H-O-H
   1837    1    5926    5925    5927  # H-O-H
   1838    1    5929    5928    5930  # H-O-H
   1839    1    5932    5931    5933  # H-O-H
   1840    1    5935    5934    5936  # H-O-H
   1841    1    5938    5937    5939  # H-O-H
   1842    1    5941    5940    5942  # H-O-H
   1843    1    5944    5943    5945  # H-O-H
   1844    1    5947    5946    5948  # H-O-H
   1845    1    5950    5949    5951  # H-O-H
   1846    1    5953    5952    5954  # H-O-H
   1847    1    5956    5955    5957  # H-O-H
   1848    1    5959    5958    5960  # H-O-H
   1849    1    5962    5961    5963  # H-O-H
   1850    1    5965    5964    5966  # H-O-H
   1851    1    5968    5967    5969  # H-O-H
   1852    1    5971    5970    5972  # H-O-H
   1853    1    5974    5973    5975  # H-O-H
   1854    1    5977    5976    5978  # H-O-H
   1855    1    5980    5979    5981  # H-O-H
   1856    1    5983    5982    5984  # H-O-H
   1857    1    5986    5985    5987  # H-O-H
   1858    1    5989    5988    5990  # H-O-H
   1859    1    5992    5991    5993  # H-O-H
   1860    1    5995    5994    5996  # H-O-H
   1861    1    5998    5997    5999  # H-O-H
   1862    1    6001    6000    6002  # H-O-H
   1863    1    6004    6003    6005  # H-O-H
   1864    1    6007    6006    6008  # H-O-H
   1865    1    6010    6009    6011  # H-O-H
   1866    1    6013    6012    6014  # H-O-H
   1867    1    6016    6015    6017  # H-O-H
   1868    1    6019    6018    6020  # H-O-H
   1869    1    6022    6021    6023  # H-O-H
   1870    1    6025    6024    6026  # H-O-H
   1871    1    6028    6027    6029  # H-O-H
   1872    1    6031    6030    6032  # H-O-H
   1873    1    6034    6033    6035  # H-O-H
   1874    1    6037    6036    6038  # H-O-H
   1875    1    6040    6039    6041  # H-O-H
   1876    1    6043    6042    6044  # H-O-H
   1877    1    6046    6045    6047  # H-O-H
   1878    1    6049    6048    6050  # H-O-H
   1879    1    6052    6051    6053  # H-O-H
   1880    1    6055    6054    6056  # H-O-H
   1881    1    6058    6057    6059  # H-O-H
   1882    1    6061    6060    6062  # H-O-H
   1883    1    6064    6063    6065  # H-O-H
   1884    1    6067    6066    6068  # H-O-H
   1885    1    6070    6069    6071  # H-O-H
   1886    1    6073    6072    6074  # H-O-H
   1887    1    6076    6075    6077  # H-O-H
   1888    1    6079    6078    6080  # H-O-H
   1889    1    6082    6081    6083  # H-O-H
   1890    1    6085    6084    6086  # H-O-H
   1891    1    6088    6087    6089  # H-O-H
   1892    1    6091    6090    6092  # H-O-H
   1893    1    6094    6093    6095  # H-O-H
   1894    1    6097    6096    6098  # H-O-H
   1895    1    6100    6099    6101  # H-O-H
   1896    1    6103    6102    6104  # H-O-H
   1897    1    6106    6105    6107  # H-O-H
   1898    1    6109    6108    6110  # H-O-H
   1899    1    6112    6111    6113  # H-O-H
   1900    1    6115    6114    6116  # H-O-H
   1901    1    6118    6117    6119  # H-O-H
   1902    1    6121    6120    6122  # H-O-H
   1903    1    6124    6123    6125  # H-O-H
   1904    1    6127    6126    6128  # H-O-H
   1905    1    6130    6129    6131  # H-O-H
   1906    1    6133    6132    6134  # H-O-H
   1907    1    6136    6135    6137  # H-O-H
   1908    1    6139    6138    6140  # H-O-H
   1909    1    6142    6141    6143  # H-O-H
   1910    1    6145    6144    6146  # H-O-H
   1911    1    6148    6147    6149  # H-O-H
   1912    1    6151    6150    6152  # H-O-H
   1913    1    6154    6153    6155  # H-O-H
   1914    1    6157    6156    6158  # H-O-H
   1915    1    6160    6159    6161  # H-O-H
   1916    1    6163    6162    6164  # H-O-H
   1917    1    6166    6165    6167  # H-O-H
   1918    1    6169    6168    6170  # H-O-H
   1919    1    6172    6171    6173  # H-O-H
   1920    1    6175    6174    6176  # H-O-H
   1921    1    6178    6177    6179  # H-O-H
   1922    1    6181    6180    6182  # H-O-H
   1923    1    6184    6183    6185  # H-O-H
   1924    1    6187    6186    6188  # H-O-H
   1925    1    6190    6189    6191  # H-O-H
   1926    1    6193    6192    6194  # H-O-H
   1927    1    6196    6195    6197  # H-O-H
   1928    1    6199    6198    6200  # H-O-H
   1929    1    6202    6201    6203  # H-O-H
   1930    1    6205    6204    6206  # H-O-H
   1931    1    6208    6207    6209  # H-O-H
   1932    1    6211    6210    6212  # H-O-H
   1933    1    6214    6213    6215  # H-O-H
   1934    1    6217    6216    6218  # H-O-H
   1935    1    6220    6219    6221  # H-O-H
   1936    1    6223    6222    6224  # H-O-H
   1937    1    6226    6225    6227  # H-O-H
   1938    1    6229    6228    6230  # H-O-H
   1939    1    6232    6231    6233  # H-O-H
   1940    1    6235    6234    6236  # H-O-H
   1941    1    6238    6237    6239  # H-O-H
   1942    1    6241    6240    6242  # H-O-H
   1943    1    6244    6243    6245  # H-O-H
   1944    1    6247    6246    6248  # H-O-H
   1945    1    6250    6249    6251  # H-O-H
   1946    1    6253    6252    6254  # H-O-H
   1947    1    6256    6255    6257  # H-O-H
   1948    1    6259    6258    6260  # H-O-H
   1949    1    6262    6261    6263  # H-O-H
   1950    1    6265    6264    6266  # H-O-H
   1951    1    6268    6267    6269  # H-O-H
   1952    1    6271    6270    6272  # H-O-H
   1953    1    6274    6273    6275  # H-O-H
   1954    1    6277    6276    6278  # H-O-H
   1955    1    6280    6279    6281  # H-O-H
   1956    1    6283    6282    6284  # H-O-H
   1957    1    6286    6285    6287  # H-O-H
   1958    1    6289    6288    6290  # H-O-H
   1959    1    6292    6291    6293  # H-O-H
   1960    1    6295    6294    6296  # H-O-H
   1961    1    6298    6297    6299  # H-O-H
   1962    1    6301    6300    6302  # H-O-H
   1963    1    6304    6303    6305  # H-O-H
   1964    1    6307    6306    6308  # H-O-H
   1965    1    6310    6309    6311  # H-O-H
   1966    1    6313    6312    6314  # H-O-H
   1967    1    6316    6315    6317  # H-O-H
   1968    1    6319    6318    6320  # H-O-H
   1969    1    6322    6321    6323  # H-O-H
   1970    1    6325    6324    6326  # H-O-H
   1971    1    6328    6327    6329  # H-O-H
   1972    1    6331    6330    6332  # H-O-H
   1973    1    6334    6333    6335  # H-O-H
   1974    1    6337    6336    6338  # H-O-H
   1975    1    6340    6339    6341  # H-O-H
   1976    1    6343    6342    6344  # H-O-H
   1977    1    6346    6345    6347  # H-O-H
   1978    1    6349    6348    6350  # H-O-H
   1979    1    6352    6351    6353  # H-O-H
   1980    1    6355    6354    6356  # H-O-H
   1981    1    6358    6357    6359  # H-O-H
   1982    1    6361    6360    6362  # H-O-H
   1983    1    6364    6363    6365  # H-O-H
   1984    1    6367    6366    6368  # H-O-H
   1985    1    6370    6369    6371  # H-O-H
   1986    1    6373    6372    6374  # H-O-H
   1987    1    6376    6375    6377  # H-O-H
   1988    1    6379    6378    6380  # H-O-H
   1989    1    6382    6381    6383  # H-O-H
   1990    1    6385    6384    6386  # H-O-H
   1991    1    6388    6387    6389  # H-O-H
   1992    1    6391    6390    6392  # H-O-H
   1993    1    6394    6393    6395  # H-O-H
   1994    1    6397    6396    6398  # H-O-H
   1995    1    6400    6399    6401  # H-O-H
   1996    1    6403    6402    6404  # H-O-H
   1997    1    6406    6405    6407  # H-O-H
   1998    1    6409    6408    6410  # H-O-H
   1999    1    6412    6411    6413  # H-O-H
   2000    1    6415    6414    6416  # H-O-H
   2001    2    6654    6461    6655  # N-B-N
   2002    2    6654    6461    6769  # N-B-N
   2003    2    6655    6461    6769  # N-B-N
   2004    2    6654    6462    6656  # N-B-N
   2005    2    6654    6462    6657  # N-B-N
   2006    2    6656    6462    6657  # N-B-N
   2007    2    6655    6463    6657  # N-B-N
   2008    2    6655    6463    6658  # N-B-N
   2009    2    6657    6463    6658  # N-B-N
   2010    2    6658    6464    6659  # N-B-N
   2011    2    6658    6464    6785  # N-B-N
   2012    2    6659    6464    6785  # N-B-N
   2013    2    6656    6465    6660  # N-B-N
   2014    2    6656    6465    6661  # N-B-N
   2015    2    6660    6465    6661  # N-B-N
   2016    2    6657    6466    6661  # N-B-N
   2017    2    6657    6466    6662  # N-B-N
   2018    2    6661    6466    6662  # N-B-N
   2019    2    6658    6467    6662  # N-B-N
   2020    2    6658    6467    6663  # N-B-N
   2021    2    6662    6467    6663  # N-B-N
   2022    2    6659    6468    6663  # N-B-N
   2023    2    6659    6468    6664  # N-B-N
   2024    2    6663    6468    6664  # N-B-N
   2025    2    6664    6469    6665  # N-B-N
   2026    2    6664    6469    6799  # N-B-N
   2027    2    6665    6469    6799  # N-B-N
   2028    2    6660    6470    6666  # N-B-N
   2029    2    6660    6470    6667  # N-B-N
   2030    2    6666    6470    6667  # N-B-N
   2031    2    6661    6471    6667  # N-B-N
   2032    2    6661    6471    6668  # N-B-N
   2033    2    6667    6471    6668  # N-B-N
   2034    2    6662    6472    6668  # N-B-N
   2035    2    6662    6472    6669  # N-B-N
   2036    2    6668    6472    6669  # N-B-N
   2037    2    6663    6473    6669  # N-B-N
   2038    2    6663    6473    6670  # N-B-N
   2039    2    6669    6473    6670  # N-B-N
   2040    2    6664    6474    6670  # N-B-N
   2041    2    6664    6474    6671  # N-B-N
   2042    2    6670    6474    6671  # N-B-N
   2043    2    6665    6475    6671  # N-B-N
   2044    2    6665    6475    6672  # N-B-N
   2045    2    6671    6475    6672  # N-B-N
   2046    2    6672    6476    6673  # N-B-N
   2047    2    6672    6476    6811  # N-B-N
   2048    2    6673    6476    6811  # N-B-N
   2049    2    6666    6477    6674  # N-B-N
   2050    2    6666    6477    6675  # N-B-N
   2051    2    6674    6477    6675  # N-B-N
   2052    2    6667    6478    6675  # N-B-N
   2053    2    6667    6478    6676  # N-B-N
   2054    2    6675    6478    6676  # N-B-N
   2055    2    6668    6479    6676  # N-B-N
   2056    2    6668    6479    6677  # N-B-N
   2057    2    6676    6479    6677  # N-B-N
   2058    2    6669    6480    6677  # N-B-N
   2059    2    6669    6480    6678  # N-B-N
   2060    2    6677    6480    6678  # N-B-N
   2061    2    6670    6481    6678  # N-B-N
   2062    2    6670    6481    6679  # N-B-N
   2063    2    6678    6481    6679  # N-B-N
   2064    2    6671    6482    6679  # N-B-N
   2065    2    6671    6482    6680  # N-B-N
   2066    2    6679    6482    6680  # N-B-N
   2067    2    6672    6483    6680  # N-B-N
   2068    2    6672    6483    6681  # N-B-N
   2069    2    6680    6483    6681  # N-B-N
   2070    2    6673    6484    6681  # N-B-N
   2071    2    6673    6484    6682  # N-B-N
   2072    2    6681    6484    6682  # N-B-N
   2073    2    6682    6485    6683  # N-B-N
   2074    2    6682    6485    6821  # N-B-N
   2075    2    6683    6485    6821  # N-B-N
   2076    2    6674    6486    6684  # N-B-N
   2077    2    6674    6486    6685  # N-B-N
   2078    2    6684    6486    6685  # N-B-N
   2079    2    6675    6487    6685  # N-B-N
   2080    2    6675    6487    6686  # N-B-N
   2081    2    6685    6487    6686  # N-B-N
   2082    2    6676    6488    6686  # N-B-N
   2083    2    6676    6488    6687  # N-B-N
   2084    2    6686    6488    6687  # N-B-N
   2085    2    6677    6489    6687  # N-B-N
   2086    2    6677    6489    6688  # N-B-N
   2087    2    6687    6489    6688  # N-B-N
   2088    2    6678    6490    6688  # N-B-N
   2089    2    6678    6490    6689  # N-B-N
   2090    2    6688    6490    6689  # N-B-N
   2091    2    6679    6491    6689  # N-B-N
   2092    2    6679    6491    6690  # N-B-N
   2093    2    6689    6491    6690  # N-B-N
   2094    2    6680    6492    6690  # N-B-N
   2095    2    6680    6492    6691  # N-B-N
   2096    2    6690    6492    6691  # N-B-N
   2097    2    6681    6493    6691  # N-B-N
   2098    2    6681    6493    6692  # N-B-N
   2099    2    6691    6493    6692  # N-B-N
   2100    2    6682    6494    6692  # N-B-N
   2101    2    6682    6494    6693  # N-B-N
   2102    2    6692    6494    6693  # N-B-N
   2103    2    6683    6495    6693  # N-B-N
   2104    2    6683    6495    6694  # N-B-N
   2105    2    6693    6495    6694  # N-B-N
   2106    2    6694    6496    6695  # N-B-N
   2107    2    6694    6496    6829  # N-B-N
   2108    2    6695    6496    6829  # N-B-N
   2109    2    6684    6497    6696  # N-B-N
   2110    2    6684    6497    6697  # N-B-N
   2111    2    6696    6497    6697  # N-B-N
   2112    2    6685    6498    6697  # N-B-N
   2113    2    6685    6498    6698  # N-B-N
   2114    2    6697    6498    6698  # N-B-N
   2115    2    6686    6499    6698  # N-B-N
   2116    2    6686    6499    6699  # N-B-N
   2117    2    6698    6499    6699  # N-B-N
   2118    2    6687    6500    6699  # N-B-N
   2119    2    6687    6500    6700  # N-B-N
   2120    2    6699    6500    6700  # N-B-N
   2121    2    6688    6501    6700  # N-B-N
   2122    2    6688    6501    6701  # N-B-N
   2123    2    6700    6501    6701  # N-B-N
   2124    2    6689    6502    6701  # N-B-N
   2125    2    6690    6503    6702  # N-B-N
   2126    2    6691    6504    6702  # N-B-N
   2127    2    6691    6504    6703  # N-B-N
   2128    2    6702    6504    6703  # N-B-N
   2129    2    6692    6505    6703  # N-B-N
   2130    2    6692    6505    6704  # N-B-N
   2131    2    6703    6505    6704  # N-B-N
   2132    2    6693    6506    6704  # N-B-N
   2133    2    6693    6506    6705  # N-B-N
   2134    2    6704    6506    6705  # N-B-N
   2135    2    6694    6507    6705  # N-B-N
   2136    2    6694    6507    6706  # N-B-N
   2137    2    6705    6507    6706  # N-B-N
   2138    2    6695    6508    6706  # N-B-N
   2139    2    6695    6508    6707  # N-B-N
   2140    2    6706    6508    6707  # N-B-N
   2141    2    6707    6509    6708  # N-B-N
   2142    2    6707    6509    6835  # N-B-N
   2143    2    6708    6509    6835  # N-B-N
   2144    2    6696    6510    6709  # N-B-N
   2145    2    6696    6510    6710  # N-B-N
   2146    2    6709    6510    6710  # N-B-N
   2147    2    6697    6511    6710  # N-B-N
   2148    2    6697    6511    6711  # N-B-N
   2149    2    6710    6511    6711  # N-B-N
   2150    2    6698    6512    6711  # N-B-N
   2151    2    6698    6512    6712  # N-B-N
   2152    2    6711    6512    6712  # N-B-N
   2153    2    6699    6513    6712  # N-B-N
   2154    2    6699    6513    6713  # N-B-N
   2155    2    6712    6513    6713  # N-B-N
   2156    2    6700    6514    6713  # N-B-N
   2157    2    6700    6514    6714  # N-B-N
   2158    2    6713    6514    6714  # N-B-N
   2159    2    6701    6515    6714  # N-B-N
   2160    3    6701    6515    6848  # N-B-HB
   2161    3    6714    6515    6848  # N-B-HB
   2162    2    6702    6516    6715  # N-B-N
   2163    3    6702    6516    6849  # N-B-HB
   2164    3    6715    6516    6849  # N-B-HB
   2165    2    6703    6517    6715  # N-B-N
   2166    2    6703    6517    6716  # N-B-N
   2167    2    6715    6517    6716  # N-B-N
   2168    2    6704    6518    6716  # N-B-N
   2169    2    6704    6518    6717  # N-B-N
   2170    2    6716    6518    6717  # N-B-N
   2171    2    6705    6519    6717  # N-B-N
   2172    2    6705    6519    6718  # N-B-N
   2173    2    6717    6519    6718  # N-B-N
   2174    2    6706    6520    6718  # N-B-N
   2175    2    6706    6520    6719  # N-B-N
   2176    2    6718    6520    6719  # N-B-N
   2177    2    6707    6521    6719  # N-B-N
   2178    2    6707    6521    6720  # N-B-N
   2179    2    6719    6521    6720  # N-B-N
   2180    2    6708    6522    6720  # N-B-N
   2181    2    6708    6522    6721  # N-B-N
   2182    2    6720    6522    6721  # N-B-N
   2183    2    6721    6523    6722  # N-B-N
   2184    2    6721    6523    6839  # N-B-N
   2185    2    6722    6523    6839  # N-B-N
   2186    2    6709    6524    6723  # N-B-N
   2187    2    6709    6524    6724  # N-B-N
   2188    2    6723    6524    6724  # N-B-N
   2189    2    6710    6525    6724  # N-B-N
   2190    2    6710    6525    6725  # N-B-N
   2191    2    6724    6525    6725  # N-B-N
   2192    2    6711    6526    6725  # N-B-N
   2193    2    6711    6526    6726  # N-B-N
   2194    2    6725    6526    6726  # N-B-N
   2195    2    6712    6527    6726  # N-B-N
   2196    2    6712    6527    6727  # N-B-N
   2197    2    6726    6527    6727  # N-B-N
   2198    2    6713    6528    6727  # N-B-N
   2199    2    6713    6528    6728  # N-B-N
   2200    2    6727    6528    6728  # N-B-N
   2201    2    6714    6529    6728  # N-B-N
   2202    3    6714    6529    6847  # N-B-HB
   2203    3    6728    6529    6847  # N-B-HB
   2204    2    6715    6530    6729  # N-B-N
   2205    3    6715    6530    6850  # N-B-HB
   2206    3    6729    6530    6850  # N-B-HB
   2207    2    6716    6531    6729  # N-B-N
   2208    2    6716    6531    6730  # N-B-N
   2209    2    6729    6531    6730  # N-B-N
   2210    2    6717    6532    6730  # N-B-N
   2211    2    6717    6532    6731  # N-B-N
   2212    2    6730    6532    6731  # N-B-N
   2213    2    6718    6533    6731  # N-B-N
   2214    2    6718    6533    6732  # N-B-N
   2215    2    6731    6533    6732  # N-B-N
   2216    2    6719    6534    6732  # N-B-N
   2217    2    6719    6534    6733  # N-B-N
   2218    2    6732    6534    6733  # N-B-N
   2219    2    6720    6535    6733  # N-B-N
   2220    2    6720    6535    6734  # N-B-N
   2221    2    6733    6535    6734  # N-B-N
   2222    2    6721    6536    6734  # N-B-N
   2223    2    6721    6536    6735  # N-B-N
   2224    2    6734    6536    6735  # N-B-N
   2225    2    6654    6537    6722  # N-B-N
   2226    2    6654    6537    6735  # N-B-N
   2227    2    6722    6537    6735  # N-B-N
   2228    2    6723    6538    6736  # N-B-N
   2229    2    6723    6538    6737  # N-B-N
   2230    2    6736    6538    6737  # N-B-N
   2231    2    6724    6539    6737  # N-B-N
   2232    2    6724    6539    6738  # N-B-N
   2233    2    6737    6539    6738  # N-B-N
   2234    2    6725    6540    6738  # N-B-N
   2235    2    6725    6540    6739  # N-B-N
   2236    2    6738    6540    6739  # N-B-N
   2237    2    6726    6541    6739  # N-B-N
   2238    2    6726    6541    6740  # N-B-N
   2239    2    6739    6541    6740  # N-B-N
   2240    2    6727    6542    6740  # N-B-N
   2241    2    6727    6542    6741  # N-B-N
   2242    2    6740    6542    6741  # N-B-N
   2243    2    6728    6543    6741  # N-B-N
   2244    3    6728    6543    6846  # N-B-HB
   2245    3    6741    6543    6846  # N-B-HB
   2246    2    6729    6544    6742  # N-B-N
   2247    3    6729    6544    6851  # N-B-HB
   2248    3    6742    6544    6851  # N-B-HB
   2249    2    6730    6545    6742  # N-B-N
   2250    2    6730    6545    6743  # N-B-N
   2251    2    6742    6545    6743  # N-B-N
   2252    2    6731    6546    6743  # N-B-N
   2253    2    6731    6546    6744  # N-B-N
   2254    2    6743    6546    6744  # N-B-N
   2255    2    6732    6547    6744  # N-B-N
   2256    2    6732    6547    6745  # N-B-N
   2257    2    6744    6547    6745  # N-B-N
   2258    2    6733    6548    6745  # N-B-N
   2259    2    6733    6548    6746  # N-B-N
   2260    2    6745    6548    6746  # N-B-N
   2261    2    6734    6549    6746  # N-B-N
   2262    2    6734    6549    6747  # N-B-N
   2263    2    6746    6549    6747  # N-B-N
   2264    2    6656    6550    6735  # N-B-N
   2265    2    6656    6550    6747  # N-B-N
   2266    2    6735    6550    6747  # N-B-N
   2267    2    6736    6551    6748  # N-B-N
   2268    2    6736    6551    6749  # N-B-N
   2269    2    6748    6551    6749  # N-B-N
   2270    2    6737    6552    6749  # N-B-N
   2271    2    6737    6552    6750  # N-B-N
   2272    2    6749    6552    6750  # N-B-N
   2273    2    6738    6553    6750  # N-B-N
   2274    2    6738    6553    6751  # N-B-N
   2275    2    6750    6553    6751  # N-B-N
   2276    2    6739    6554    6751  # N-B-N
   2277    2    6739    6554    6752  # N-B-N
   2278    2    6751    6554    6752  # N-B-N
   2279    2    6740    6555    6752  # N-B-N
   2280    2    6740    6555    6753  # N-B-N
   2281    2    6752    6555    6753  # N-B-N
   2282    2    6741    6556    6753  # N-B-N
   2283    3    6741    6556    6845  # N-B-HB
   2284    3    6753    6556    6845  # N-B-HB
   2285    2    6742    6557    6754  # N-B-N
   2286    3    6742    6557    6852  # N-B-HB
   2287    3    6754    6557    6852  # N-B-HB
   2288    2    6743    6558    6754  # N-B-N
   2289    2    6743    6558    6755  # N-B-N
   2290    2    6754    6558    6755  # N-B-N
   2291    2    6744    6559    6755  # N-B-N
   2292    2    6744    6559    6756  # N-B-N
   2293    2    6755    6559    6756  # N-B-N
   2294    2    6745    6560    6756  # N-B-N
   2295    2    6745    6560    6757  # N-B-N
   2296    2    6756    6560    6757  # N-B-N
   2297    2    6746    6561    6757  # N-B-N
   2298    2    6746    6561    6758  # N-B-N
   2299    2    6757    6561    6758  # N-B-N
   2300    2    6660    6562    6747  # N-B-N
   2301    2    6660    6562    6758  # N-B-N
   2302    2    6747    6562    6758  # N-B-N
   2303    2    6748    6563    6759  # N-B-N
   2304    2    6748    6563    6760  # N-B-N
   2305    2    6759    6563    6760  # N-B-N
   2306    2    6749    6564    6760  # N-B-N
   2307    2    6749    6564    6761  # N-B-N
   2308    2    6760    6564    6761  # N-B-N
   2309    2    6750    6565    6761  # N-B-N
   2310    2    6750    6565    6762  # N-B-N
   2311    2    6761    6565    6762  # N-B-N
   2312    2    6751    6566    6762  # N-B-N
   2313    2    6751    6566    6763  # N-B-N
   2314    2    6762    6566    6763  # N-B-N
   2315    2    6752    6567    6763  # N-B-N
   2316    2    6752    6567    6764  # N-B-N
   2317    2    6763    6567    6764  # N-B-N
   2318    2    6753    6568    6764  # N-B-N
   2319    2    6754    6569    6765  # N-B-N
   2320    2    6755    6570    6765  # N-B-N
   2321    2    6755    6570    6766  # N-B-N
   2322    2    6765    6570    6766  # N-B-N
   2323    2    6756    6571    6766  # N-B-N
   2324    2    6756    6571    6767  # N-B-N
   2325    2    6766    6571    6767  # N-B-N
   2326    2    6757    6572    6767  # N-B-N
   2327    2    6757    6572    6768  # N-B-N
   2328    2    6767    6572    6768  # N-B-N
   2329    2    6666    6573    6758  # N-B-N
   2330    2    6666    6573    6768  # N-B-N
   2331    2    6758    6573    6768  # N-B-N
   2332    2    6759    6574    6769  # N-B-N
   2333    2    6759    6574    6770  # N-B-N
   2334    2    6769    6574    6770  # N-B-N
   2335    2    6760    6575    6770  # N-B-N
   2336    2    6760    6575    6771  # N-B-N
   2337    2    6770    6575    6771  # N-B-N
   2338    2    6761    6576    6771  # N-B-N
   2339    2    6761    6576    6772  # N-B-N
   2340    2    6771    6576    6772  # N-B-N
   2341    2    6762    6577    6772  # N-B-N
   2342    2    6762    6577    6773  # N-B-N
   2343    2    6772    6577    6773  # N-B-N
   2344    2    6763    6578    6773  # N-B-N
   2345    2    6763    6578    6774  # N-B-N
   2346    2    6773    6578    6774  # N-B-N
   2347    2    6764    6579    6774  # N-B-N
   2348    2    6764    6579    6775  # N-B-N
   2349    2    6774    6579    6775  # N-B-N
   2350    2    6775    6580    6776  # N-B-N
   2351    2    6776    6581    6777  # N-B-N
   2352    3    6776    6581    6844  # N-B-HB
   2353    3    6777    6581    6844  # N-B-HB
   2354    2    6777    6582    6778  # N-B-N
   2355    3    6777    6582    6843  # N-B-HB
   2356    3    6778    6582    6843  # N-B-HB
   2357    2    6778    6583    6779  # N-B-N
   2358    3    6778    6583    6842  # N-B-HB
   2359    3    6779    6583    6842  # N-B-HB
   2360    2    6779    6584    6780  # N-B-N
   2361    3    6779    6584    6841  # N-B-HB
   2362    3    6780    6584    6841  # N-B-HB
   2363    2    6780    6585    6781  # N-B-N
   2364    2    6765    6586    6781  # N-B-N
   2365    2    6765    6586    6782  # N-B-N
   2366    2    6781    6586    6782  # N-B-N
   2367    2    6766    6587    6782  # N-B-N
   2368    2    6766    6587    6783  # N-B-N
   2369    2    6782    6587    6783  # N-B-N
   2370    2    6767    6588    6783  # N-B-N
   2371    2    6767    6588    6784  # N-B-N
   2372    2    6783    6588    6784  # N-B-N
   2373    2    6674    6589    6768  # N-B-N
   2374    2    6674    6589    6784  # N-B-N
   2375    2    6768    6589    6784  # N-B-N
   2376    2    6655    6590    6770  # N-B-N
   2377    2    6655    6590    6785  # N-B-N
   2378    2    6770    6590    6785  # N-B-N
   2379    2    6771    6591    6785  # N-B-N
   2380    2    6771    6591    6786  # N-B-N
   2381    2    6785    6591    6786  # N-B-N
   2382    2    6772    6592    6786  # N-B-N
   2383    2    6772    6592    6787  # N-B-N
   2384    2    6786    6592    6787  # N-B-N
   2385    2    6773    6593    6787  # N-B-N
   2386    2    6773    6593    6788  # N-B-N
   2387    2    6787    6593    6788  # N-B-N
   2388    2    6774    6594    6788  # N-B-N
   2389    2    6774    6594    6789  # N-B-N
   2390    2    6788    6594    6789  # N-B-N
   2391    2    6775    6595    6789  # N-B-N
   2392    2    6775    6595    6790  # N-B-N
   2393    2    6789    6595    6790  # N-B-N
   2394    2    6776    6596    6790  # N-B-N
   2395    2    6776    6596    6791  # N-B-N
   2396    2    6790    6596    6791  # N-B-N
   2397    2    6777    6597    6791  # N-B-N
   2398    2    6777    6597    6792  # N-B-N
   2399    2    6791    6597    6792  # N-B-N
   2400    2    6778    6598    6792  # N-B-N
   2401    2    6778    6598    6793  # N-B-N
   2402    2    6792    6598    6793  # N-B-N
   2403    2    6779    6599    6793  # N-B-N
   2404    2    6779    6599    6794  # N-B-N
   2405    2    6793    6599    6794  # N-B-N
   2406    2    6780    6600    6794  # N-B-N
   2407    2    6780    6600    6795  # N-B-N
   2408    2    6794    6600    6795  # N-B-N
   2409    2    6781    6601    6795  # N-B-N
   2410    2    6781    6601    6796  # N-B-N
   2411    2    6795    6601    6796  # N-B-N
   2412    2    6782    6602    6796  # N-B-N
   2413    2    6782    6602    6797  # N-B-N
   2414    2    6796    6602    6797  # N-B-N
   2415    2    6783    6603    6797  # N-B-N
   2416    2    6783    6603    6798  # N-B-N
   2417    2    6797    6603    6798  # N-B-N
   2418    2    6684    6604    6784  # N-B-N
   2419    2    6684    6604    6798  # N-B-N
   2420    2    6784    6604    6798  # N-B-N
   2421    2    6659    6605    6786  # N-B-N
   2422    2    6659    6605    6799  # N-B-N
   2423    2    6786    6605    6799  # N-B-N
   2424    2    6787    6606    6799  # N-B-N
   2425    2    6787    6606    6800  # N-B-N
   2426    2    6799    6606    6800  # N-B-N
   2427    2    6788    6607    6800  # N-B-N
   2428    2    6788    6607    6801  # N-B-N
   2429    2    6800    6607    6801  # N-B-N
   2430    2    6789    6608    6801  # N-B-N
   2431    2    6789    6608    6802  # N-B-N
   2432    2    6801    6608    6802  # N-B-N
   2433    2    6790    6609    6802  # N-B-N
   2434    2    6790    6609    6803  # N-B-N
   2435    2    6802    6609    6803  # N-B-N
   2436    2    6791    6610    6803  # N-B-N
   2437    2    6791    6610    6804  # N-B-N
   2438    2    6803    6610    6804  # N-B-N
   2439    2    6792    6611    6804  # N-B-N
   2440    2    6792    6611    6805  # N-B-N
   2441    2    6804    6611    6805  # N-B-N
   2442    2    6793    6612    6805  # N-B-N
   2443    2    6793    6612    6806  # N-B-N
   2444    2    6805    6612    6806  # N-B-N
   2445    2    6794    6613    6806  # N-B-N
   2446    2    6794    6613    6807  # N-B-N
   2447    2    6806    6613    6807  # N-B-N
   2448    2    6795    6614    6807  # N-B-N
   2449    2    6795    6614    6808  # N-B-N
   2450    2    6807    6614    6808  # N-B-N
   2451    2    6796    6615    6808  # N-B-N
   2452    2    6796    6615    6809  # N-B-N
   2453    2    6808    6615    6809  # N-B-N
   2454    2    6797    6616    6809  # N-B-N
   2455    2    6797    6616    6810  # N-B-N
   2456    2    6809    6616    6810  # N-B-N
   2457    2    6696    6617    6798  # N-B-N
   2458    2    6696    6617    6810  # N-B-N
   2459    2    6798    6617    6810  # N-B-N
   2460    2    6665    6618    6800  # N-B-N
   2461    2    6665    6618    6811  # N-B-N
   2462    2    6800    6618    6811  # N-B-N
   2463    2    6801    6619    6811  # N-B-N
   2464    2    6801    6619    6812  # N-B-N
   2465    2    6811    6619    6812  # N-B-N
   2466    2    6802    6620    6812  # N-B-N
   2467    2    6802    6620    6813  # N-B-N
   2468    2    6812    6620    6813  # N-B-N
   2469    2    6803    6621    6813  # N-B-N
   2470    2    6803    6621    6814  # N-B-N
   2471    2    6813    6621    6814  # N-B-N
   2472    2    6804    6622    6814  # N-B-N
   2473    2    6804    6622    6815  # N-B-N
   2474    2    6814    6622    6815  # N-B-N
   2475    2    6805    6623    6815  # N-B-N
   2476    2    6805    6623    6816  # N-B-N
   2477    2    6815    6623    6816  # N-B-N
   2478    2    6806    6624    6816  # N-B-N
   2479    2    6806    6624    6817  # N-B-N
   2480    2    6816    6624    6817  # N-B-N
   2481    2    6807    6625    6817  # N-B-N
   2482    2    6807    6625    6818  # N-B-N
   2483    2    6817    6625    6818  # N-B-N
   2484    2    6808    6626    6818  # N-B-N
   2485    2    6808    6626    6819  # N-B-N
   2486    2    6818    6626    6819  # N-B-N
   2487    2    6809    6627    6819  # N-B-N
   2488    2    6809    6627    6820  # N-B-N
   2489    2    6819    6627    6820  # N-B-N
   2490    2    6709    6628    6810  # N-B-N
   2491    2    6709    6628    6820  # N-B-N
   2492    2    6810    6628    6820  # N-B-N
   2493    2    6673    6629    6812  # N-B-N
   2494    2    6673    6629    6821  # N-B-N
   2495    2    6812    6629    6821  # N-B-N
   2496    2    6813    6630    6821  # N-B-N
   2497    2    6813    6630    6822  # N-B-N
   2498    2    6821    6630    6822  # N-B-N
   2499    2    6814    6631    6822  # N-B-N
   2500    2    6814    6631    6823  # N-B-N
   2501    2    6822    6631    6823  # N-B-N
   2502    2    6815    6632    6823  # N-B-N
   2503    2    6815    6632    6824  # N-B-N
   2504    2    6823    6632    6824  # N-B-N
   2505    2    6816    6633    6824  # N-B-N
   2506    2    6816    6633    6825  # N-B-N
   2507    2    6824    6633    6825  # N-B-N
   2508    2    6817    6634    6825  # N-B-N
   2509    2    6817    6634    6826  # N-B-N
   2510    2    6825    6634    6826  # N-B-N
   2511    2    6818    6635    6826  # N-B-N
   2512    2    6818    6635    6827  # N-B-N
   2513    2    6826    6635    6827  # N-B-N
   2514    2    6819    6636    6827  # N-B-N
   2515    2    6819    6636    6828  # N-B-N
   2516    2    6827    6636    6828  # N-B-N
   2517    2    6723    6637    6820  # N-B-N
   2518    2    6723    6637    6828  # N-B-N
   2519    2    6820    6637    6828  # N-B-N
   2520    2    6683    6638    6822  # N-B-N
   2521    2    6683    6638    6829  # N-B-N
   2522    2    6822    6638    6829  # N-B-N
   2523    2    6823    6639    6829  # N-B-N
   2524    2    6823    6639    6830  # N-B-N
   2525    2    6829    6639    6830  # N-B-N
   2526    2    6824    6640    6830  # N-B-N
   2527    2    6824    6640    6831  # N-B-N
   2528    2    6830    6640    6831  # N-B-N
   2529    2    6825    6641    6831  # N-B-N
   2530    2    6825    6641    6832  # N-B-N
   2531    2    6831    6641    6832  # N-B-N
   2532    2    6826    6642    6832  # N-B-N
   2533    2    6826    6642    6833  # N-B-N
   2534    2    6832    6642    6833  # N-B-N
   2535    2    6827    6643    6833  # N-B-N
   2536    2    6827    6643    6834  # N-B-N
   2537    2    6833    6643    6834  # N-B-N
   2538    2    6736    6644    6828  # N-B-N
   2539    2    6736    6644    6834  # N-B-N
   2540    2    6828    6644    6834  # N-B-N
   2541    2    6695    6645    6830  # N-B-N
   2542    2    6695    6645    6835  # N-B-N
   2543    2    6830    6645    6835  # N-B-N
   2544    2    6831    6646    6835  # N-B-N
   2545    2    6831    6646    6836  # N-B-N
   2546    2    6835    6646    6836  # N-B-N
   2547    2    6832    6647    6836  # N-B-N
   2548    2    6832    6647    6837  # N-B-N
   2549    2    6836    6647    6837  # N-B-N
   2550    2    6833    6648    6837  # N-B-N
   2551    2    6833    6648    6838  # N-B-N
   2552    2    6837    6648    6838  # N-B-N
   2553    2    6748    6649    6834  # N-B-N
   2554    2    6748    6649    6838  # N-B-N
   2555    2    6834    6649    6838  # N-B-N
   2556    2    6708    6650    6836  # N-B-N
   2557    2    6708    6650    6839  # N-B-N
   2558    2    6836    6650    6839  # N-B-N
   2559    2    6837    6651    6839  # N-B-N
   2560    2    6837    6651    6840  # N-B-N
   2561    2    6839    6651    6840  # N-B-N
   2562    2    6759    6652    6838  # N-B-N
   2563    2    6759    6652    6840  # N-B-N
   2564    2    6838    6652    6840  # N-B-N
   2565    2    6722    6653    6769  # N-B-N
   2566    2    6722    6653    6840  # N-B-N
   2567    2    6769    6653    6840  # N-B-N
   2568    4    6461    6654    6462  # B-N-B
   2569    4    6461    6654    6537  # B-N-B
   2570    4    6462    6654    6537  # B-N-B
   2571    4    6461    6655    6463  # B-N-B
   2572    4    6461    6655    6590  # B-N-B
   2573    4    6463    6655    6590  # B-N-B
   2574    4    6462    6656    6465  # B-N-B
   2575    4    6462    6656    6550  # B-N-B
   2576    4    6465    6656    6550  # B-N-B
   2577    4    6462    6657    6463  # B-N-B
   2578    4    6462    6657    6466  # B-N-B
   2579    4    6463    6657    6466  # B-N-B
   2580    4    6463    6658    6464  # B-N-B
   2581    4    6463    6658    6467  # B-N-B
   2582    4    6464    6658    6467  # B-N-B
   2583    4    6464    6659    6468  # B-N-B
   2584    4    6464    6659    6605  # B-N-B
   2585    4    6468    6659    6605  # B-N-B
   2586    4    6465    6660    6470  # B-N-B
   2587    4    6465    6660    6562  # B-N-B
   2588    4    6470    6660    6562  # B-N-B
   2589    4    6465    6661    6466  # B-N-B
   2590    4    6465    6661    6471  # B-N-B
   2591    4    6466    6661    6471  # B-N-B
   2592    4    6466    6662    6467  # B-N-B
   2593    4    6466    6662    6472  # B-N-B
   2594    4    6467    6662    6472  # B-N-B
   2595    4    6467    6663    6468  # B-N-B
   2596    4    6467    6663    6473  # B-N-B
   2597    4    6468    6663    6473  # B-N-B
   2598    4    6468    6664    6469  # B-N-B
   2599    4    6468    6664    6474  # B-N-B
   2600    4    6469    6664    6474  # B-N-B
   2601    4    6469    6665    6475  # B-N-B
   2602    4    6469    6665    6618  # B-N-B
   2603    4    6475    6665    6618  # B-N-B
   2604    4    6470    6666    6477  # B-N-B
   2605    4    6470    6666    6573  # B-N-B
   2606    4    6477    6666    6573  # B-N-B
   2607    4    6470    6667    6471  # B-N-B
   2608    4    6470    6667    6478  # B-N-B
   2609    4    6471    6667    6478  # B-N-B
   2610    4    6471    6668    6472  # B-N-B
   2611    4    6471    6668    6479  # B-N-B
   2612    4    6472    6668    6479  # B-N-B
   2613    4    6472    6669    6473  # B-N-B
   2614    4    6472    6669    6480  # B-N-B
   2615    4    6473    6669    6480  # B-N-B
   2616    4    6473    6670    6474  # B-N-B
   2617    4    6473    6670    6481  # B-N-B
   2618    4    6474    6670    6481  # B-N-B
   2619    4    6474    6671    6475  # B-N-B
   2620    4    6474    6671    6482  # B-N-B
   2621    4    6475    6671    6482  # B-N-B
   2622    4    6475    6672    6476  # B-N-B
   2623    4    6475    6672    6483  # B-N-B
   2624    4    6476    6672    6483  # B-N-B
   2625    4    6476    6673    6484  # B-N-B
   2626    4    6476    6673    6629  # B-N-B
   2627    4    6484    6673    6629  # B-N-B
   2628    4    6477    6674    6486  # B-N-B
   2629    4    6477    6674    6589  # B-N-B
   2630    4    6486    6674    6589  # B-N-B
   2631    4    6477    6675    6478  # B-N-B
   2632    4    6477    6675    6487  # B-N-B
   2633    4    6478    6675    6487  # B-N-B
   2634    4    6478    6676    6479  # B-N-B
   2635    4    6478    6676    6488  # B-N-B
   2636    4    6479    6676    6488  # B-N-B
   2637    4    6479    6677    6480  # B-N-B
   2638    4    6479    6677    6489  # B-N-B
   2639    4    6480    6677    6489  # B-N-B
   2640    4    6480    6678    6481  # B-N-B
   2641    4    6480    6678    6490  # B-N-B
   2642    4    6481    6678    6490  # B-N-B
   2643    4    6481    6679    6482  # B-N-B
   2644    4    6481    6679    6491  # B-N-B
   2645    4    6482    6679    6491  # B-N-B
   2646    4    6482    6680    6483  # B-N-B
   2647    4    6482    6680    6492  # B-N-B
   2648    4    6483    6680    6492  # B-N-B
   2649    4    6483    6681    6484  # B-N-B
   2650    4    6483    6681    6493  # B-N-B
   2651    4    6484    6681    6493  # B-N-B
   2652    4    6484    6682    6485  # B-N-B
   2653    4    6484    6682    6494  # B-N-B
   2654    4    6485    6682    6494  # B-N-B
   2655    4    6485    6683    6495  # B-N-B
   2656    4    6485    6683    6638  # B-N-B
   2657    4    6495    6683    6638  # B-N-B
   2658    4    6486    6684    6497  # B-N-B
   2659    4    6486    6684    6604  # B-N-B
   2660    4    6497    6684    6604  # B-N-B
   2661    4    6486    6685    6487  # B-N-B
   2662    4    6486    6685    6498  # B-N-B
   2663    4    6487    6685    6498  # B-N-B
   2664    4    6487    6686    6488  # B-N-B
   2665    4    6487    6686    6499  # B-N-B
   2666    4    6488    6686    6499  # B-N-B
   2667    4    6488    6687    6489  # B-N-B
   2668    4    6488    6687    6500  # B-N-B
   2669    4    6489    6687    6500  # B-N-B
   2670    4    6489    6688    6490  # B-N-B
   2671    4    6489    6688    6501  # B-N-B
   2672    4    6490    6688    6501  # B-N-B
   2673    4    6490    6689    6491  # B-N-B
   2674    4    6490    6689    6502  # B-N-B
   2675    4    6491    6689    6502  # B-N-B
   2676    4    6491    6690    6492  # B-N-B
   2677    4    6491    6690    6503  # B-N-B
   2678    4    6492    6690    6503  # B-N-B
   2679    4    6492    6691    6493  # B-N-B
   2680    4    6492    6691    6504  # B-N-B
   2681    4    6493    6691    6504  # B-N-B
   2682    4    6493    6692    6494  # B-N-B
   2683    4    6493    6692    6505  # B-N-B
   2684    4    6494    6692    6505  # B-N-B
   2685    4    6494    6693    6495  # B-N-B
   2686    4    6494    6693    6506  # B-N-B
   2687    4    6495    6693    6506  # B-N-B
   2688    4    6495    6694    6496  # B-N-B
   2689    4    6495    6694    6507  # B-N-B
   2690    4    6496    6694    6507  # B-N-B
   2691    4    6496    6695    6508  # B-N-B
   2692    4    6496    6695    6645  # B-N-B
   2693    4    6508    6695    6645  # B-N-B
   2694    4    6497    6696    6510  # B-N-B
   2695    4    6497    6696    6617  # B-N-B
   2696    4    6510    6696    6617  # B-N-B
   2697    4    6497    6697    6498  # B-N-B
   2698    4    6497    6697    6511  # B-N-B
   2699    4    6498    6697    6511  # B-N-B
   2700    4    6498    6698    6499  # B-N-B
   2701    4    6498    6698    6512  # B-N-B
   2702    4    6499    6698    6512  # B-N-B
   2703    4    6499    6699    6500  # B-N-B
   2704    4    6499    6699    6513  # B-N-B
   2705    4    6500    6699    6513  # B-N-B
   2706    4    6500    6700    6501  # B-N-B
   2707    4    6500    6700    6514  # B-N-B
   2708    4    6501    6700    6514  # B-N-B
   2709    4    6501    6701    6502  # B-N-B
   2710    4    6501    6701    6515  # B-N-B
   2711    4    6502    6701    6515  # B-N-B
   2712    4    6503    6702    6504  # B-N-B
   2713    4    6503    6702    6516  # B-N-B
   2714    4    6504    6702    6516  # B-N-B
   2715    4    6504    6703    6505  # B-N-B
   2716    4    6504    6703    6517  # B-N-B
   2717    4    6505    6703    6517  # B-N-B
   2718    4    6505    6704    6506  # B-N-B
   2719    4    6505    6704    6518  # B-N-B
   2720    4    6506    6704    6518  # B-N-B
   2721    4    6506    6705    6507  # B-N-B
   2722    4    6506    6705    6519  # B-N-B
   2723    4    6507    6705    6519  # B-N-B
   2724    4    6507    6706    6508  # B-N-B
   2725    4    6507    6706    6520  # B-N-B
   2726    4    6508    6706    6520  # B-N-B
   2727    4    6508    6707    6509  # B-N-B
   2728    4    6508    6707    6521  # B-N-B
   2729    4    6509    6707    6521  # B-N-B
   2730    4    6509    6708    6522  # B-N-B
   2731    4    6509    6708    6650  # B-N-B
   2732    4    6522    6708    6650  # B-N-B
   2733    4    6510    6709    6524  # B-N-B
   2734    4    6510    6709    6628  # B-N-B
   2735    4    6524    6709    6628  # B-N-B
   2736    4    6510    6710    6511  # B-N-B
   2737    4    6510    6710    6525  # B-N-B
   2738    4    6511    6710    6525  # B-N-B
   2739    4    6511    6711    6512  # B-N-B
   2740    4    6511    6711    6526  # B-N-B
   2741    4    6512    6711    6526  # B-N-B
   2742    4    6512    6712    6513  # B-N-B
   2743    4    6512    6712    6527  # B-N-B
   2744    4    6513    6712    6527  # B-N-B
   2745    4    6513    6713    6514  # B-N-B
   2746    4    6513    6713    6528  # B-N-B
   2747    4    6514    6713    6528  # B-N-B
   2748    4    6514    6714    6515  # B-N-B
   2749    4    6514    6714    6529  # B-N-B
   2750    4    6515    6714    6529  # B-N-B
   2751    4    6516    6715    6517  # B-N-B
   2752    4    6516    6715    6530  # B-N-B
   2753    4    6517    6715    6530  # B-N-B
   2754    4    6517    6716    6518  # B-N-B
   2755    4    6517    6716    6531  # B-N-B
   2756    4    6518    6716    6531  # B-N-B
   2757    4    6518    6717    6519  # B-N-B
   2758    4    6518    6717    6532  # B-N-B
   2759    4    6519    6717    6532  # B-N-B
   2760    4    6519    6718    6520  # B-N-B
   2761    4    6519    6718    6533  # B-N-B
   2762    4    6520    6718    6533  # B-N-B
   2763    4    6520    6719    6521  # B-N-B
   2764    4    6520    6719    6534  # B-N-B
   2765    4    6521    6719    6534  # B-N-B
   2766    4    6521    6720    6522  # B-N-B
   2767    4    6521    6720    6535  # B-N-B
   2768    4    6522    6720    6535  # B-N-B
   2769    4    6522    6721    6523  # B-N-B
   2770    4    6522    6721    6536  # B-N-B
   2771    4    6523    6721    6536  # B-N-B
   2772    4    6523    6722    6537  # B-N-B
   2773    4    6523    6722    6653  # B-N-B
   2774    4    6537    6722    6653  # B-N-B
   2775    4    6524    6723    6538  # B-N-B
   2776    4    6524    6723    6637  # B-N-B
   2777    4    6538    6723    6637  # B-N-B
   2778    4    6524    6724    6525  # B-N-B
   2779    4    6524    6724    6539  # B-N-B
   2780    4    6525    6724    6539  # B-N-B
   2781    4    6525    6725    6526  # B-N-B
   2782    4    6525    6725    6540  # B-N-B
   2783    4    6526    6725    6540  # B-N-B
   2784    4    6526    6726    6527  # B-N-B
   2785    4    6526    6726    6541  # B-N-B
   2786    4    6527    6726    6541  # B-N-B
   2787    4    6527    6727    6528  # B-N-B
   2788    4    6527    6727    6542  # B-N-B
   2789    4    6528    6727    6542  # B-N-B
   2790    4    6528    6728    6529  # B-N-B
   2791    4    6528    6728    6543  # B-N-B
   2792    4    6529    6728    6543  # B-N-B
   2793    4    6530    6729    6531  # B-N-B
   2794    4    6530    6729    6544  # B-N-B
   2795    4    6531    6729    6544  # B-N-B
   2796    4    6531    6730    6532  # B-N-B
   2797    4    6531    6730    6545  # B-N-B
   2798    4    6532    6730    6545  # B-N-B
   2799    4    6532    6731    6533  # B-N-B
   2800    4    6532    6731    6546  # B-N-B
   2801    4    6533    6731    6546  # B-N-B
   2802    4    6533    6732    6534  # B-N-B
   2803    4    6533    6732    6547  # B-N-B
   2804    4    6534    6732    6547  # B-N-B
   2805    4    6534    6733    6535  # B-N-B
   2806    4    6534    6733    6548  # B-N-B
   2807    4    6535    6733    6548  # B-N-B
   2808    4    6535    6734    6536  # B-N-B
   2809    4    6535    6734    6549  # B-N-B
   2810    4    6536    6734    6549  # B-N-B
   2811    4    6536    6735    6537  # B-N-B
   2812    4    6536    6735    6550  # B-N-B
   2813    4    6537    6735    6550  # B-N-B
   2814    4    6538    6736    6551  # B-N-B
   2815    4    6538    6736    6644  # B-N-B
   2816    4    6551    6736    6644  # B-N-B
   2817    4    6538    6737    6539  # B-N-B
   2818    4    6538    6737    6552  # B-N-B
   2819    4    6539    6737    6552  # B-N-B
   2820    4    6539    6738    6540  # B-N-B
   2821    4    6539    6738    6553  # B-N-B
   2822    4    6540    6738    6553  # B-N-B
   2823    4    6540    6739    6541  # B-N-B
   2824    4    6540    6739    6554  # B-N-B
   2825    4    6541    6739    6554  # B-N-B
   2826    4    6541    6740    6542  # B-N-B
   2827    4    6541    6740    6555  # B-N-B
   2828    4    6542    6740    6555  # B-N-B
   2829    4    6542    6741    6543  # B-N-B
   2830    4    6542    6741    6556  # B-N-B
   2831    4    6543    6741    6556  # B-N-B
   2832    4    6544    6742    6545  # B-N-B
   2833    4    6544    6742    6557  # B-N-B
   2834    4    6545    6742    6557  # B-N-B
   2835    4    6545    6743    6546  # B-N-B
   2836    4    6545    6743    6558  # B-N-B
   2837    4    6546    6743    6558  # B-N-B
   2838    4    6546    6744    6547  # B-N-B
   2839    4    6546    6744    6559  # B-N-B
   2840    4    6547    6744    6559  # B-N-B
   2841    4    6547    6745    6548  # B-N-B
   2842    4    6547    6745    6560  # B-N-B
   2843    4    6548    6745    6560  # B-N-B
   2844    4    6548    6746    6549  # B-N-B
   2845    4    6548    6746    6561  # B-N-B
   2846    4    6549    6746    6561  # B-N-B
   2847    4    6549    6747    6550  # B-N-B
   2848    4    6549    6747    6562  # B-N-B
   2849    4    6550    6747    6562  # B-N-B
   2850    4    6551    6748    6563  # B-N-B
   2851    4    6551    6748    6649  # B-N-B
   2852    4    6563    6748    6649  # B-N-B
   2853    4    6551    6749    6552  # B-N-B
   2854    4    6551    6749    6564  # B-N-B
   2855    4    6552    6749    6564  # B-N-B
   2856    4    6552    6750    6553  # B-N-B
   2857    4    6552    6750    6565  # B-N-B
   2858    4    6553    6750    6565  # B-N-B
   2859    4    6553    6751    6554  # B-N-B
   2860    4    6553    6751    6566  # B-N-B
   2861    4    6554    6751    6566  # B-N-B
   2862    4    6554    6752    6555  # B-N-B
   2863    4    6554    6752    6567  # B-N-B
   2864    4    6555    6752    6567  # B-N-B
   2865    4    6555    6753    6556  # B-N-B
   2866    4    6555    6753    6568  # B-N-B
   2867    4    6556    6753    6568  # B-N-B
   2868    4    6557    6754    6558  # B-N-B
   2869    4    6557    6754    6569  # B-N-B
   2870    4    6558    6754    6569  # B-N-B
   2871    4    6558    6755    6559  # B-N-B
   2872    4    6558    6755    6570  # B-N-B
   2873    4    6559    6755    6570  # B-N-B
   2874    4    6559    6756    6560  # B-N-B
   2875    4    6559    6756    6571  # B-N-B
   2876    4    6560    6756    6571  # B-N-B
   2877    4    6560    6757    6561  # B-N-B
   2878    4    6560    6757    6572  # B-N-B
   2879    4    6561    6757    6572  # B-N-B
   2880    4    6561    6758    6562  # B-N-B
   2881    4    6561    6758    6573  # B-N-B
   2882    4    6562    6758    6573  # B-N-B
   2883    4    6563    6759    6574  # B-N-B
   2884    4    6563    6759    6652  # B-N-B
   2885    4    6574    6759    6652  # B-N-B
   2886    4    6563    6760    6564  # B-N-B
   2887    4    6563    6760    6575  # B-N-B
   2888    4    6564    6760    6575  # B-N-B
   2889    4    6564    6761    6565  # B-N-B
   2890    4    6564    6761    6576  # B-N-B
   2891    4    6565    6761    6576  # B-N-B
   2892    4    6565    6762    6566  # B-N-B
   2893    4    6565    6762    6577  # B-N-B
   2894    4    6566    6762    6577  # B-N-B
   2895    4    6566    6763    6567  # B-N-B
   2896    4    6566    6763    6578  # B-N-B
   2897    4    6567    6763    6578  # B-N-B
   2898    4    6567    6764    6568  # B-N-B
   2899    4    6567    6764    6579  # B-N-B
   2900    4    6568    6764    6579  # B-N-B
   2901    4    6569    6765    6570  # B-N-B
   2902    4    6569    6765    6586  # B-N-B
   2903    4    6570    6765    6586  # B-N-B
   2904    4    6570    6766    6571  # B-N-B
   2905    4    6570    6766    6587  # B-N-B
   2906    4    6571    6766    6587  # B-N-B
   2907    4    6571    6767    6572  # B-N-B
   2908    4    6571    6767    6588  # B-N-B
   2909    4    6572    6767    6588  # B-N-B
   2910    4    6572    6768    6573  # B-N-B
   2911    4    6572    6768    6589  # B-N-B
   2912    4    6573    6768    6589  # B-N-B
   2913    4    6461    6769    6574  # B-N-B
   2914    4    6461    6769    6653  # B-N-B
   2915    4    6574    6769    6653  # B-N-B
   2916    4    6574    6770    6575  # B-N-B
   2917    4    6574    6770    6590  # B-N-B
   2918    4    6575    6770    6590  # B-N-B
   2919    4    6575    6771    6576  # B-N-B
   2920    4    6575    6771    6591  # B-N-B
   2921    4    6576    6771    6591  # B-N-B
   2922    4    6576    6772    6577  # B-N-B
   2923    4    6576    6772    6592  # B-N-B
   2924    4    6577    6772    6592  # B-N-B
   2925    4    6577    6773    6578  # B-N-B
   2926    4    6577    6773    6593  # B-N-B
   2927    4    6578    6773    6593  # B-N-B
   2928    4    6578    6774    6579  # B-N-B
   2929    4    6578    6774    6594  # B-N-B
   2930    4    6579    6774    6594  # B-N-B
   2931    4    6579    6775    6580  # B-N-B
   2932    4    6579    6775    6595  # B-N-B
   2933    4    6580    6775    6595  # B-N-B
   2934    4    6580    6776    6581  # B-N-B
   2935    4    6580    6776    6596  # B-N-B
   2936    4    6581    6776    6596  # B-N-B
   2937    4    6581    6777    6582  # B-N-B
   2938    4    6581    6777    6597  # B-N-B
   2939    4    6582    6777    6597  # B-N-B
   2940    4    6582    6778    6583  # B-N-B
   2941    4    6582    6778    6598  # B-N-B
   2942    4    6583    6778    6598  # B-N-B
   2943    4    6583    6779    6584  # B-N-B
   2944    4    6583    6779    6599  # B-N-B
   2945    4    6584    6779    6599  # B-N-B
   2946    4    6584    6780    6585  # B-N-B
   2947    4    6584    6780    6600  # B-N-B
   2948    4    6585    6780    6600  # B-N-B
   2949    4    6585    6781    6586  # B-N-B
   2950    4    6585    6781    6601  # B-N-B
   2951    4    6586    6781    6601  # B-N-B
   2952    4    6586    6782    6587  # B-N-B
   2953    4    6586    6782    6602  # B-N-B
   2954    4    6587    6782    6602  # B-N-B
   2955    4    6587    6783    6588  # B-N-B
   2956    4    6587    6783    6603  # B-N-B
   2957    4    6588    6783    6603  # B-N-B
   2958    4    6588    6784    6589  # B-N-B
   2959    4    6588    6784    6604  # B-N-B
   2960    4    6589    6784    6604  # B-N-B
   2961    4    6464    6785    6590  # B-N-B
   2962    4    6464    6785    6591  # B-N-B
   2963    4    6590    6785    6591  # B-N-B
   2964    4    6591    6786    6592  # B-N-B
   2965    4    6591    6786    6605  # B-N-B
   2966    4    6592    6786    6605  # B-N-B
   2967    4    6592    6787    6593  # B-N-B
   2968    4    6592    6787    6606  # B-N-B
   2969    4    6593    6787    6606  # B-N-B
   2970    4    6593    6788    6594  # B-N-B
   2971    4    6593    6788    6607  # B-N-B
   2972    4    6594    6788    6607  # B-N-B
   2973    4    6594    6789    6595  # B-N-B
   2974    4    6594    6789    6608  # B-N-B
   2975    4    6595    6789    6608  # B-N-B
   2976    4    6595    6790    6596  # B-N-B
   2977    4    6595    6790    6609  # B-N-B
   2978    4    6596    6790    6609  # B-N-B
   2979    4    6596    6791    6597  # B-N-B
   2980    4    6596    6791    6610  # B-N-B
   2981    4    6597    6791    6610  # B-N-B
   2982    4    6597    6792    6598  # B-N-B
   2983    4    6597    6792    6611  # B-N-B
   2984    4    6598    6792    6611  # B-N-B
   2985    4    6598    6793    6599  # B-N-B
   2986    4    6598    6793    6612  # B-N-B
   2987    4    6599    6793    6612  # B-N-B
   2988    4    6599    6794    6600  # B-N-B
   2989    4    6599    6794    6613  # B-N-B
   2990    4    6600    6794    6613  # B-N-B
   2991    4    6600    6795    6601  # B-N-B
   2992    4    6600    6795    6614  # B-N-B
   2993    4    6601    6795    6614  # B-N-B
   2994    4    6601    6796    6602  # B-N-B
   2995    4    6601    6796    6615  # B-N-B
   2996    4    6602    6796    6615  # B-N-B
   2997    4    6602    6797    6603  # B-N-B
   2998    4    6602    6797    6616  # B-N-B
   2999    4    6603    6797    6616  # B-N-B
   3000    4    6603    6798    6604  # B-N-B
   3001    4    6603    6798    6617  # B-N-B
   3002    4    6604    6798    6617  # B-N-B
   3003    4    6469    6799    6605  # B-N-B
   3004    4    6469    6799    6606  # B-N-B
   3005    4    6605    6799    6606  # B-N-B
   3006    4    6606    6800    6607  # B-N-B
   3007    4    6606    6800    6618  # B-N-B
   3008    4    6607    6800    6618  # B-N-B
   3009    4    6607    6801    6608  # B-N-B
   3010    4    6607    6801    6619  # B-N-B
   3011    4    6608    6801    6619  # B-N-B
   3012    4    6608    6802    6609  # B-N-B
   3013    4    6608    6802    6620  # B-N-B
   3014    4    6609    6802    6620  # B-N-B
   3015    4    6609    6803    6610  # B-N-B
   3016    4    6609    6803    6621  # B-N-B
   3017    4    6610    6803    6621  # B-N-B
   3018    4    6610    6804    6611  # B-N-B
   3019    4    6610    6804    6622  # B-N-B
   3020    4    6611    6804    6622  # B-N-B
   3021    4    6611    6805    6612  # B-N-B
   3022    4    6611    6805    6623  # B-N-B
   3023    4    6612    6805    6623  # B-N-B
   3024    4    6612    6806    6613  # B-N-B
   3025    4    6612    6806    6624  # B-N-B
   3026    4    6613    6806    6624  # B-N-B
   3027    4    6613    6807    6614  # B-N-B
   3028    4    6613    6807    6625  # B-N-B
   3029    4    6614    6807    6625  # B-N-B
   3030    4    6614    6808    6615  # B-N-B
   3031    4    6614    6808    6626  # B-N-B
   3032    4    6615    6808    6626  # B-N-B
   3033    4    6615    6809    6616  # B-N-B
   3034    4    6615    6809    6627  # B-N-B
   3035    4    6616    6809    6627  # B-N-B
   3036    4    6616    6810    6617  # B-N-B
   3037    4    6616    6810    6628  # B-N-B
   3038    4    6617    6810    6628  # B-N-B
   3039    4    6476    6811    6618  # B-N-B
   3040    4    6476    6811    6619  # B-N-B
   3041    4    6618    6811    6619  # B-N-B
   3042    4    6619    6812    6620  # B-N-B
   3043    4    6619    6812    6629  # B-N-B
   3044    4    6620    6812    6629  # B-N-B
   3045    4    6620    6813    6621  # B-N-B
   3046    4    6620    6813    6630  # B-N-B
   3047    4    6621    6813    6630  # B-N-B
   3048    4    6621    6814    6622  # B-N-B
   3049    4    6621    6814    6631  # B-N-B
   3050    4    6622    6814    6631  # B-N-B
   3051    4    6622    6815    6623  # B-N-B
   3052    4    6622    6815    6632  # B-N-B
   3053    4    6623    6815    6632  # B-N-B
   3054    4    6623    6816    6624  # B-N-B
   3055    4    6623    6816    6633  # B-N-B
   3056    4    6624    6816    6633  # B-N-B
   3057    4    6624    6817    6625  # B-N-B
   3058    4    6624    6817    6634  # B-N-B
   3059    4    6625    6817    6634  # B-N-B
   3060    4    6625    6818    6626  # B-N-B
   3061    4    6625    6818    6635  # B-N-B
   3062    4    6626    6818    6635  # B-N-B
   3063    4    6626    6819    6627  # B-N-B
   3064    4    6626    6819    6636  # B-N-B
   3065    4    6627    6819    6636  # B-N-B
   3066    4    6627    6820    6628  # B-N-B
   3067    4    6627    6820    6637  # B-N-B
   3068    4    6628    6820    6637  # B-N-B
   3069    4    6485    6821    6629  # B-N-B
   3070    4    6485    6821    6630  # B-N-B
   3071    4    6629    6821    6630  # B-N-B
   3072    4    6630    6822    6631  # B-N-B
   3073    4    6630    6822    6638  # B-N-B
   3074    4    6631    6822    6638  # B-N-B
   3075    4    6631    6823    6632  # B-N-B
   3076    4    6631    6823    6639  # B-N-B
   3077    4    6632    6823    6639  # B-N-B
   3078    4    6632    6824    6633  # B-N-B
   3079    4    6632    6824    6640  # B-N-B
   3080    4    6633    6824    6640  # B-N-B
   3081    4    6633    6825    6634  # B-N-B
   3082    4    6633    6825    6641  # B-N-B
   3083    4    6634    6825    6641  # B-N-B
   3084    4    6634    6826    6635  # B-N-B
   3085    4    6634    6826    6642  # B-N-B
   3086    4    6635    6826    6642  # B-N-B
   3087    4    6635    6827    6636  # B-N-B
   3088    4    6635    6827    6643  # B-N-B
   3089    4    6636    6827    6643  # B-N-B
   3090    4    6636    6828    6637  # B-N-B
   3091    4    6636    6828    6644  # B-N-B
   3092    4    6637    6828    6644  # B-N-B
   3093    4    6496    6829    6638  # B-N-B
   3094    4    6496    6829    6639  # B-N-B
   3095    4    6638    6829    6639  # B-N-B
   3096    4    6639    6830    6640  # B-N-B
   3097    4    6639    6830    6645  # B-N-B
   3098    4    6640    6830    6645  # B-N-B
   3099    4    6640    6831    6641  # B-N-B
   3100    4    6640    6831    6646  # B-N-B
   3101    4    6641    6831    6646  # B-N-B
   3102    4    6641    6832    6642  # B-N-B
   3103    4    6641    6832    6647  # B-N-B
   3104    4    6642    6832    6647  # B-N-B
   3105    4    6642    6833    6643  # B-N-B
   3106    4    6642    6833    6648  # B-N-B
   3107    4    6643    6833    6648  # B-N-B
   3108    4    6643    6834    6644  # B-N-B
   3109    4    6643    6834    6649  # B-N-B
   3110    4    6644    6834    6649  # B-N-B
   3111    4    6509    6835    6645  # B-N-B
   3112    4    6509    6835    6646  # B-N-B
   3113    4    6645    6835    6646  # B-N-B
   3114    4    6646    6836    6647  # B-N-B
   3115    4    6646    6836    6650  # B-N-B
   3116    4    6647    6836    6650  # B-N-B
   3117    4    6647    6837    6648  # B-N-B
   3118    4    6647    6837    6651  # B-N-B
   3119    4    6648    6837    6651  # B-N-B
   3120    4    6648    6838    6649  # B-N-B
   3121    4    6648    6838    6652  # B-N-B
   3122    4    6649    6838    6652  # B-N-B
   3123    4    6523    6839    6650  # B-N-B
   3124    4    6523    6839    6651  # B-N-B
   3125    4    6650    6839    6651  # B-N-B
   3126    4    6651    6840    6652  # B-N-B
   3127    4    6651    6840    6653  # B-N-B
   3128    4    6652    6840    6653  # B-N-B
   3129    1    6854    6853    6855  # H-O-H
   3130    1    6857    6856    6858  # H-O-H
   3131    1    6860    6859    6861  # H-O-H
   3132    1    6863    6862    6864  # H-O-H
   3133    1    6866    6865    6867  # H-O-H
   3134    1    6869    6868    6870  # H-O-H
   3135    1    6872    6871    6873  # H-O-H
   3136    1    6875    6874    6876  # H-O-H
   3137    1    6878    6877    6879  # H-O-H
   3138    1    6881    6880    6882  # H-O-H
   3139    1    6884    6883    6885  # H-O-H
   3140    1    6887    6886    6888  # H-O-H
   3141    1    6890    6889    6891  # H-O-H
   3142    1    6893    6892    6894  # H-O-H
   3143    1    6896    6895    6897  # H-O-H
   3144    1    6899    6898    6900  # H-O-H
   3145    1    6902    6901    6903  # H-O-H
   3146    1    6905    6904    6906  # H-O-H
   3147    1    6908    6907    6909  # H-O-H
   3148    1    6911    6910    6912  # H-O-H
   3149    1    6914    6913    6915  # H-O-H
   3150    1    6917    6916    6918  # H-O-H
   3151    1    6920    6919    6921  # H-O-H
   3152    1    6923    6922    6924  # H-O-H
   3153    1    6926    6925    6927  # H-O-H
   3154    1    6929    6928    6930  # H-O-H
   3155    1    6932    6931    6933  # H-O-H
   3156    1    6935    6934    6936  # H-O-H
   3157    1    6938    6937    6939  # H-O-H
   3158    1    6941    6940    6942  # H-O-H
   3159    1    6944    6943    6945  # H-O-H
   3160    1    6947    6946    6948  # H-O-H
   3161    1    6950    6949    6951  # H-O-H
   3162    1    6953    6952    6954  # H-O-H
   3163    1    6956    6955    6957  # H-O-H
   3164    1    6959    6958    6960  # H-O-H
   3165    1    6962    6961    6963  # H-O-H
   3166    1    6965    6964    6966  # H-O-H
   3167    1    6968    6967    6969  # H-O-H
   3168    1    6971    6970    6972  # H-O-H
   3169    1    6974    6973    6975  # H-O-H
   3170    1    6977    6976    6978  # H-O-H
   3171    1    6980    6979    6981  # H-O-H
   3172    1    6983    6982    6984  # H-O-H
   3173    1    6986    6985    6987  # H-O-H
   3174    1    6989    6988    6990  # H-O-H
   3175    1    6992    6991    6993  # H-O-H
   3176    1    6995    6994    6996  # H-O-H
   3177    1    6998    6997    6999  # H-O-H
   3178    1    7001    7000    7002  # H-O-H
   3179    1    7004    7003    7005  # H-O-H
   3180    1    7007    7006    7008  # H-O-H
   3181    1    7010    7009    7011  # H-O-H
   3182    1    7013    7012    7014  # H-O-H
   3183    1    7016    7015    7017  # H-O-H
   3184    1    7019    7018    7020  # H-O-H
   3185    1    7022    7021    7023  # H-O-H
   3186    1    7025    7024    7026  # H-O-H
   3187    1    7028    7027    7029  # H-O-H
   3188    1    7031    7030    7032  # H-O-H
   3189    1    7034    7033    7035  # H-O-H
   3190    1    7037    7036    7038  # H-O-H
   3191    1    7040    7039    7041  # H-O-H
   3192    1    7043    7042    7044  # H-O-H
   3193    1    7046    7045    7047  # H-O-H
   3194    1    7049    7048    7050  # H-O-H
   3195    1    7052    7051    7053  # H-O-H
   3196    1    7055    7054    7056  # H-O-H
   3197    1    7058    7057    7059  # H-O-H
   3198    1    7061    7060    7062  # H-O-H
   3199    1    7064    7063    7065  # H-O-H
   3200    1    7067    7066    7068  # H-O-H
   3201    1    7070    7069    7071  # H-O-H
   3202    1    7073    7072    7074  # H-O-H
   3203    1    7076    7075    7077  # H-O-H
   3204    1    7079    7078    7080  # H-O-H
   3205    1    7082    7081    7083  # H-O-H
   3206    1    7085    7084    7086  # H-O-H
   3207    1    7088    7087    7089  # H-O-H
   3208    1    7091    7090    7092  # H-O-H
   3209    1    7094    7093    7095  # H-O-H
   3210    1    7097    7096    7098  # H-O-H
   3211    1    7100    7099    7101  # H-O-H
   3212    1    7103    7102    7104  # H-O-H
   3213    1    7106    7105    7107  # H-O-H
   3214    1    7109    7108    7110  # H-O-H
   3215    1    7112    7111    7113  # H-O-H
   3216    1    7115    7114    7116  # H-O-H
   3217    1    7118    7117    7119  # H-O-H
   3218    1    7121    7120    7122  # H-O-H
   3219    1    7124    7123    7125  # H-O-H
   3220    1    7127    7126    7128  # H-O-H
   3221    1    7130    7129    7131  # H-O-H
   3222    1    7133    7132    7134  # H-O-H
   3223    1    7136    7135    7137  # H-O-H
   3224    1    7139    7138    7140  # H-O-H
   3225    1    7142    7141    7143  # H-O-H
   3226    1    7145    7144    7146  # H-O-H
   3227    1    7148    7147    7149  # H-O-H
   3228    1    7151    7150    7152  # H-O-H
   3229    1    7154    7153    7155  # H-O-H
   3230    1    7157    7156    7158  # H-O-H
   3231    1    7160    7159    7161  # H-O-H
   3232    1    7163    7162    7164  # H-O-H
   3233    1    7166    7165    7167  # H-O-H
   3234    1    7169    7168    7170  # H-O-H
   3235    1    7172    7171    7173  # H-O-H
   3236    1    7175    7174    7176  # H-O-H
   3237    1    7178    7177    7179  # H-O-H
   3238    1    7181    7180    7182  # H-O-H
   3239    1    7184    7183    7185  # H-O-H
   3240    1    7187    7186    7188  # H-O-H
   3241    1    7190    7189    7191  # H-O-H
   3242    1    7193    7192    7194  # H-O-H
   3243    1    7196    7195    7197  # H-O-H
   3244    1    7199    7198    7200  # H-O-H
   3245    1    7202    7201    7203  # H-O-H
   3246    1    7205    7204    7206  # H-O-H
   3247    1    7208    7207    7209  # H-O-H
   3248    1    7211    7210    7212  # H-O-H
   3249    1    7214    7213    7215  # H-O-H
   3250    1    7217    7216    7218  # H-O-H
   3251    1    7220    7219    7221  # H-O-H
   3252    1    7223    7222    7224  # H-O-H
   3253    1    7226    7225    7227  # H-O-H
   3254    1    7229    7228    7230  # H-O-H
   3255    1    7232    7231    7233  # H-O-H
   3256    1    7235    7234    7236  # H-O-H
   3257    1    7238    7237    7239  # H-O-H
   3258    1    7241    7240    7242  # H-O-H
   3259    1    7244    7243    7245  # H-O-H
   3260    1    7247    7246    7248  # H-O-H
   3261    1    7250    7249    7251  # H-O-H
   3262    1    7253    7252    7254  # H-O-H
   3263    1    7256    7255    7257  # H-O-H
   3264    1    7259    7258    7260  # H-O-H
   3265    1    7262    7261    7263  # H-O-H
   3266    1    7265    7264    7266  # H-O-H
   3267    1    7268    7267    7269  # H-O-H
   3268    1    7271    7270    7272  # H-O-H
   3269    1    7274    7273    7275  # H-O-H
   3270    1    7277    7276    7278  # H-O-H
   3271    1    7280    7279    7281  # H-O-H
   3272    1    7283    7282    7284  # H-O-H
   3273    1    7286    7285    7287  # H-O-H
   3274    1    7289    7288    7290  # H-O-H
   3275    1    7292    7291    7293  # H-O-H
   3276    1    7295    7294    7296  # H-O-H
   3277    1    7298    7297    7299  # H-O-H
   3278    1    7301    7300    7302  # H-O-H
   3279    1    7304    7303    7305  # H-O-H
   3280    1    7307    7306    7308  # H-O-H
   3281    1    7310    7309    7311  # H-O-H
   3282    1    7313    7312    7314  # H-O-H
   3283    1    7316    7315    7317  # H-O-H
   3284    1    7319    7318    7320  # H-O-H
   3285    1    7322    7321    7323  # H-O-H
   3286    1    7325    7324    7326  # H-O-H
   3287    1    7328    7327    7329  # H-O-H
   3288    1    7331    7330    7332  # H-O-H
   3289    1    7334    7333    7335  # H-O-H
   3290    1    7337    7336    7338  # H-O-H
   3291    1    7340    7339    7341  # H-O-H
   3292    1    7343    7342    7344  # H-O-H
   3293    1    7346    7345    7347  # H-O-H
   3294    1    7349    7348    7350  # H-O-H
   3295    1    7352    7351    7353  # H-O-H
   3296    1    7355    7354    7356  # H-O-H
   3297    1    7358    7357    7359  # H-O-H
   3298    1    7361    7360    7362  # H-O-H
   3299    1    7364    7363    7365  # H-O-H
   3300    1    7367    7366    7368  # H-O-H
   3301    1    7370    7369    7371  # H-O-H
   3302    1    7373    7372    7374  # H-O-H
   3303    1    7376    7375    7377  # H-O-H
   3304    1    7379    7378    7380  # H-O-H
   3305    1    7382    7381    7383  # H-O-H
   3306    1    7385    7384    7386  # H-O-H
   3307    1    7388    7387    7389  # H-O-H
   3308    1    7391    7390    7392  # H-O-H
   3309    1    7394    7393    7395  # H-O-H
   3310    1    7397    7396    7398  # H-O-H
   3311    1    7400    7399    7401  # H-O-H
   3312    1    7403    7402    7404  # H-O-H
   3313    1    7406    7405    7407  # H-O-H
   3314    1    7409    7408    7410  # H-O-H
   3315    1    7412    7411    7413  # H-O-H
   3316    1    7415    7414    7416  # H-O-H
   3317    1    7418    7417    7419  # H-O-H
   3318    1    7421    7420    7422  # H-O-H
   3319    1    7424    7423    7425  # H-O-H
   3320    1    7427    7426    7428  # H-O-H
   3321    1    7430    7429    7431  # H-O-H
   3322    1    7433    7432    7434  # H-O-H
   3323    1    7436    7435    7437  # H-O-H
   3324    1    7439    7438    7440  # H-O-H
   3325    1    7442    7441    7443  # H-O-H
   3326    1    7445    7444    7446  # H-O-H
   3327    1    7448    7447    7449  # H-O-H
   3328    1    7451    7450    7452  # H-O-H
   3329    1    7454    7453    7455  # H-O-H
   3330    1    7457    7456    7458  # H-O-H
   3331    1    7460    7459    7461  # H-O-H
   3332    1    7463    7462    7464  # H-O-H
   3333    1    7466    7465    7467  # H-O-H
   3334    1    7469    7468    7470  # H-O-H
   3335    1    7472    7471    7473  # H-O-H
   3336    1    7475    7474    7476  # H-O-H
   3337    1    7478    7477    7479  # H-O-H
   3338    1    7481    7480    7482  # H-O-H
   3339    1    7484    7483    7485  # H-O-H
   3340    1    7487    7486    7488  # H-O-H
   3341    1    7490    7489    7491  # H-O-H
   3342    1    7493    7492    7494  # H-O-H
   3343    1    7496    7495    7497  # H-O-H
   3344    1    7499    7498    7500  # H-O-H
   3345    1    7502    7501    7503  # H-O-H
   3346    1    7505    7504    7506  # H-O-H
   3347    1    7508    7507    7509  # H-O-H
   3348    1    7511    7510    7512  # H-O-H
   3349    1    7514    7513    7515  # H-O-H
   3350    1    7517    7516    7518  # H-O-H
   3351    1    7520    7519    7521  # H-O-H
   3352    1    7523    7522    7524  # H-O-H
   3353    1    7526    7525    7527  # H-O-H
   3354    1    7529    7528    7530  # H-O-H
   3355    1    7532    7531    7533  # H-O-H
   3356    1    7535    7534    7536  # H-O-H
   3357    1    7538    7537    7539  # H-O-H
   3358    1    7541    7540    7542  # H-O-H
   3359    1    7544    7543    7545  # H-O-H
   3360    1    7547    7546    7548  # H-O-H
   3361    1    7550    7549    7551  # H-O-H
   3362    1    7553    7552    7554  # H-O-H
   3363    1    7556    7555    7557  # H-O-H
   3364    1    7559    7558    7560  # H-O-H
   3365    1    7562    7561    7563  # H-O-H
   3366    1    7565    7564    7566  # H-O-H
   3367    1    7568    7567    7569  # H-O-H
   3368    1    7571    7570    7572  # H-O-H
   3369    1    7574    7573    7575  # H-O-H
   3370    1    7577    7576    7578  # H-O-H
   3371    1    7580    7579    7581  # H-O-H
   3372    1    7583    7582    7584  # H-O-H
   3373    1    7586    7585    7587  # H-O-H
   3374    1    7589    7588    7590  # H-O-H
   3375    1    7592    7591    7593  # H-O-H
   3376    1    7595    7594    7596  # H-O-H
   3377    1    7598    7597    7599  # H-O-H
   3378    1    7601    7600    7602  # H-O-H
   3379    1    7604    7603    7605  # H-O-H
   3380    1    7607    7606    7608  # H-O-H
   3381    1    7610    7609    7611  # H-O-H
   3382    1    7613    7612    7614  # H-O-H
   3383    1    7616    7615    7617  # H-O-H
   3384    1    7619    7618    7620  # H-O-H
   3385    1    7622    7621    7623  # H-O-H
   3386    1    7625    7624    7626  # H-O-H
   3387    1    7628    7627    7629  # H-O-H
   3388    1    7631    7630    7632  # H-O-H
   3389    1    7634    7633    7635  # H-O-H
   3390    1    7637    7636    7638  # H-O-H
   3391    1    7640    7639    7641  # H-O-H
   3392    1    7643    7642    7644  # H-O-H
   3393    1    7646    7645    7647  # H-O-H
   3394    1    7649    7648    7650  # H-O-H
   3395    1    7652    7651    7653  # H-O-H
   3396    1    7655    7654    7656  # H-O-H
   3397    1    7658    7657    7659  # H-O-H
   3398    1    7661    7660    7662  # H-O-H
   3399    1    7664    7663    7665  # H-O-H
   3400    1    7667    7666    7668  # H-O-H
   3401    1    7670    7669    7671  # H-O-H
   3402    1    7673    7672    7674  # H-O-H
   3403    1    7676    7675    7677  # H-O-H
   3404    1    7679    7678    7680  # H-O-H
   3405    1    7682    7681    7683  # H-O-H
   3406    1    7685    7684    7686  # H-O-H
   3407    1    7688    7687    7689  # H-O-H
   3408    1    7691    7690    7692  # H-O-H
   3409    1    7694    7693    7695  # H-O-H
   3410    1    7697    7696    7698  # H-O-H
   3411    1    7700    7699    7701  # H-O-H
   3412    1    7703    7702    7704  # H-O-H
   3413    1    7706    7705    7707  # H-O-H
   3414    1    7709    7708    7710  # H-O-H
   3415    1    7712    7711    7713  # H-O-H
   3416    1    7715    7714    7716  # H-O-H
   3417    1    7718    7717    7719  # H-O-H
   3418    1    7721    7720    7722  # H-O-H
   3419    1    7724    7723    7725  # H-O-H
   3420    1    7727    7726    7728  # H-O-H
   3421    1    7730    7729    7731  # H-O-H
   3422    1    7733    7732    7734  # H-O-H
   3423    1    7736    7735    7737  # H-O-H
   3424    1    7739    7738    7740  # H-O-H
   3425    1    7742    7741    7743  # H-O-H
   3426    1    7745    7744    7746  # H-O-H
   3427    1    7748    7747    7749  # H-O-H
   3428    1    7751    7750    7752  # H-O-H
   3429    1    7754    7753    7755  # H-O-H
   3430    1    7757    7756    7758  # H-O-H
   3431    1    7760    7759    7761  # H-O-H
   3432    1    7763    7762    7764  # H-O-H
   3433    1    7766    7765    7767  # H-O-H
   3434    1    7769    7768    7770  # H-O-H
   3435    1    7772    7771    7773  # H-O-H
   3436    1    7775    7774    7776  # H-O-H
   3437    1    7778    7777    7779  # H-O-H
   3438    1    7781    7780    7782  # H-O-H
   3439    1    7784    7783    7785  # H-O-H
   3440    1    7787    7786    7788  # H-O-H
   3441    1    7790    7789    7791  # H-O-H
   3442    1    7793    7792    7794  # H-O-H
   3443    1    7796    7795    7797  # H-O-H
   3444    1    7799    7798    7800  # H-O-H
   3445    1    7802    7801    7803  # H-O-H
   3446    1    7805    7804    7806  # H-O-H
   3447    1    7808    7807    7809  # H-O-H
   3448    1    7811    7810    7812  # H-O-H
   3449    1    7814    7813    7815  # H-O-H
   3450    1    7817    7816    7818  # H-O-H
   3451    1    7820    7819    7821  # H-O-H
   3452    1    7823    7822    7824  # H-O-H
   3453    1    7826    7825    7827  # H-O-H
   3454    1    7829    7828    7830  # H-O-H
   3455    1    7832    7831    7833  # H-O-H
   3456    1    7835    7834    7836  # H-O-H
   3457    1    7838    7837    7839  # H-O-H
   3458    1    7841    7840    7842  # H-O-H
   3459    1    7844    7843    7845  # H-O-H
   3460    1    7847    7846    7848  # H-O-H
   3461    1    7850    7849    7851  # H-O-H
   3462    1    7853    7852    7854  # H-O-H
   3463    1    7856    7855    7857  # H-O-H
   3464    1    7859    7858    7860  # H-O-H
   3465    1    7862    7861    7863  # H-O-H
   3466    1    7865    7864    7866  # H-O-H
   3467    1    7868    7867    7869  # H-O-H
   3468    1    7871    7870    7872  # H-O-H
   3469    1    7874    7873    7875  # H-O-H
   3470    1    7877    7876    7878  # H-O-H
   3471    1    7880    7879    7881  # H-O-H
   3472    1    7883    7882    7884  # H-O-H
   3473    1    7886    7885    7887  # H-O-H
   3474    1    7889    7888    7890  # H-O-H
   3475    1    7892    7891    7893  # H-O-H
   3476    1    7895    7894    7896  # H-O-H
   3477    1    7898    7897    7899  # H-O-H
   3478    1    7901    7900    7902  # H-O-H
   3479    1    7904    7903    7905  # H-O-H
   3480    1    7907    7906    7908  # H-O-H
   3481    1    7910    7909    7911  # H-O-H
   3482    1    7913    7912    7914  # H-O-H
   3483    1    7916    7915    7917  # H-O-H
   3484    1    7919    7918    7920  # H-O-H
   3485    1    7922    7921    7923  # H-O-H
   3486    1    7925    7924    7926  # H-O-H
   3487    1    7928    7927    7929  # H-O-H
   3488    1    7931    7930    7932  # H-O-H
   3489    1    7934    7933    7935  # H-O-H
   3490    1    7937    7936    7938  # H-O-H
   3491    1    7940    7939    7941  # H-O-H
   3492    1    7943    7942    7944  # H-O-H
   3493    1    7946    7945    7947  # H-O-H
   3494    1    7949    7948    7950  # H-O-H
   3495    1    7952    7951    7953  # H-O-H
   3496    1    7955    7954    7956  # H-O-H
   3497    1    7958    7957    7959  # H-O-H
   3498    1    7961    7960    7962  # H-O-H
   3499    1    7964    7963    7965  # H-O-H
   3500    1    7967    7966    7968  # H-O-H
   3501    1    7970    7969    7971  # H-O-H
   3502    1    7973    7972    7974  # H-O-H
   3503    1    7976    7975    7977  # H-O-H
   3504    1    7979    7978    7980  # H-O-H
   3505    1    7982    7981    7983  # H-O-H
   3506    1    7985    7984    7986  # H-O-H
   3507    1    7988    7987    7989  # H-O-H
   3508    1    7991    7990    7992  # H-O-H
   3509    1    7994    7993    7995  # H-O-H
   3510    1    7997    7996    7998  # H-O-H
   3511    1    8000    7999    8001  # H-O-H
   3512    1    8003    8002    8004  # H-O-H
   3513    1    8006    8005    8007  # H-O-H
   3514    1    8009    8008    8010  # H-O-H
   3515    1    8012    8011    8013  # H-O-H
   3516    1    8015    8014    8016  # H-O-H
   3517    1    8018    8017    8019  # H-O-H
   3518    1    8021    8020    8022  # H-O-H
   3519    1    8024    8023    8025  # H-O-H
   3520    1    8027    8026    8028  # H-O-H
   3521    1    8030    8029    8031  # H-O-H
   3522    1    8033    8032    8034  # H-O-H
   3523    1    8036    8035    8037  # H-O-H
   3524    1    8039    8038    8040  # H-O-H
   3525    1    8042    8041    8043  # H-O-H
   3526    1    8045    8044    8046  # H-O-H
   3527    1    8048    8047    8049  # H-O-H
   3528    1    8051    8050    8052  # H-O-H
   3529    1    8054    8053    8055  # H-O-H
   3530    1    8057    8056    8058  # H-O-H
   3531    1    8060    8059    8061  # H-O-H
   3532    1    8063    8062    8064  # H-O-H
   3533    1    8066    8065    8067  # H-O-H
   3534    1    8069    8068    8070  # H-O-H
   3535    1    8072    8071    8073  # H-O-H
   3536    1    8075    8074    8076  # H-O-H
   3537    1    8078    8077    8079  # H-O-H
   3538    1    8081    8080    8082  # H-O-H
   3539    1    8084    8083    8085  # H-O-H
   3540    1    8087    8086    8088  # H-O-H
   3541    1    8090    8089    8091  # H-O-H
   3542    1    8093    8092    8094  # H-O-H
   3543    1    8096    8095    8097  # H-O-H
   3544    1    8099    8098    8100  # H-O-H
   3545    1    8102    8101    8103  # H-O-H
   3546    1    8105    8104    8106  # H-O-H
   3547    1    8108    8107    8109  # H-O-H
   3548    1    8111    8110    8112  # H-O-H
   3549    1    8114    8113    8115  # H-O-H
   3550    1    8117    8116    8118  # H-O-H
   3551    1    8120    8119    8121  # H-O-H
   3552    1    8123    8122    8124  # H-O-H
   3553    1    8126    8125    8127  # H-O-H
   3554    1    8129    8128    8130  # H-O-H
   3555    1    8132    8131    8133  # H-O-H
   3556    1    8135    8134    8136  # H-O-H
   3557    1    8138    8137    8139  # H-O-H
   3558    1    8141    8140    8142  # H-O-H
   3559    1    8144    8143    8145  # H-O-H
   3560    1    8147    8146    8148  # H-O-H
   3561    1    8150    8149    8151  # H-O-H
   3562    1    8153    8152    8154  # H-O-H
   3563    1    8156    8155    8157  # H-O-H
   3564    1    8159    8158    8160  # H-O-H
   3565    1    8162    8161    8163  # H-O-H
   3566    1    8165    8164    8166  # H-O-H
   3567    1    8168    8167    8169  # H-O-H
   3568    1    8171    8170    8172  # H-O-H
   3569    1    8174    8173    8175  # H-O-H
   3570    1    8177    8176    8178  # H-O-H
   3571    1    8180    8179    8181  # H-O-H
   3572    1    8183    8182    8184  # H-O-H
   3573    1    8186    8185    8187  # H-O-H
   3574    1    8189    8188    8190  # H-O-H
   3575    1    8192    8191    8193  # H-O-H
   3576    1    8195    8194    8196  # H-O-H
   3577    1    8198    8197    8199  # H-O-H
   3578    1    8201    8200    8202  # H-O-H
   3579    1    8204    8203    8205  # H-O-H
   3580    1    8207    8206    8208  # H-O-H
   3581    1    8210    8209    8211  # H-O-H
   3582    1    8213    8212    8214  # H-O-H
   3583    1    8216    8215    8217  # H-O-H
   3584    1    8219    8218    8220  # H-O-H
   3585    1    8222    8221    8223  # H-O-H
   3586    1    8225    8224    8226  # H-O-H
   3587    1    8228    8227    8229  # H-O-H
   3588    1    8231    8230    8232  # H-O-H
   3589    1    8234    8233    8235  # H-O-H
   3590    1    8237    8236    8238  # H-O-H
   3591    1    8240    8239    8241  # H-O-H
   3592    1    8243    8242    8244  # H-O-H
   3593    1    8246    8245    8247  # H-O-H
   3594    1    8249    8248    8250  # H-O-H
   3595    1    8252    8251    8253  # H-O-H
   3596    1    8255    8254    8256  # H-O-H
   3597    1    8258    8257    8259  # H-O-H
   3598    1    8261    8260    8262  # H-O-H
   3599    1    8264    8263    8265  # H-O-H
   3600    1    8267    8266    8268  # H-O-H
   3601    1    8270    8269    8271  # H-O-H
   3602    1    8273    8272    8274  # H-O-H
   3603    1    8276    8275    8277  # H-O-H
   3604    1    8279    8278    8280  # H-O-H
   3605    1    8282    8281    8283  # H-O-H
   3606    1    8285    8284    8286  # H-O-H
   3607    1    8288    8287    8289  # H-O-H
   3608    1    8291    8290    8292  # H-O-H
   3609    1    8294    8293    8295  # H-O-H
   3610    1    8297    8296    8298  # H-O-H
   3611    1    8300    8299    8301  # H-O-H
   3612    1    8303    8302    8304  # H-O-H
   3613    1    8306    8305    8307  # H-O-H
   3614    1    8309    8308    8310  # H-O-H
   3615    1    8312    8311    8313  # H-O-H
   3616    1    8315    8314    8316  # H-O-H
   3617    1    8318    8317    8319  # H-O-H
   3618    1    8321    8320    8322  # H-O-H
   3619    1    8324    8323    8325  # H-O-H
   3620    1    8327    8326    8328  # H-O-H
   3621    1    8330    8329    8331  # H-O-H
   3622    1    8333    8332    8334  # H-O-H
   3623    1    8336    8335    8337  # H-O-H
   3624    1    8339    8338    8340  # H-O-H
   3625    1    8342    8341    8343  # H-O-H
   3626    1    8345    8344    8346  # H-O-H
   3627    1    8348    8347    8349  # H-O-H
   3628    1    8351    8350    8352  # H-O-H

Dihedrals

      1    1    6848    6515    6701    6501  # B-N-B-HB
      2    1    6848    6515    6701    6502  # B-N-B-HB
      3    1    6848    6515    6714    6514  # B-N-B-HB
      4    1    6848    6515    6714    6529  # B-N-B-HB
      5    1    6849    6516    6702    6503  # B-N-B-HB
      6    1    6849    6516    6702    6504  # B-N-B-HB
      7    1    6849    6516    6715    6517  # B-N-B-HB
      8    1    6849    6516    6715    6530  # B-N-B-HB
      9    1    6847    6529    6714    6514  # B-N-B-HB
     10    1    6847    6529    6714    6515  # B-N-B-HB
     11    1    6847    6529    6728    6528  # B-N-B-HB
     12    1    6847    6529    6728    6543  # B-N-B-HB
     13    1    6850    6530    6715    6516  # B-N-B-HB
     14    1    6850    6530    6715    6517  # B-N-B-HB
     15    1    6850    6530    6729    6531  # B-N-B-HB
     16    1    6850    6530    6729    6544  # B-N-B-HB
     17    1    6846    6543    6728    6528  # B-N-B-HB
     18    1    6846    6543    6728    6529  # B-N-B-HB
     19    1    6846    6543    6741    6542  # B-N-B-HB
     20    1    6846    6543    6741    6556  # B-N-B-HB
     21    1    6851    6544    6729    6530  # B-N-B-HB
     22    1    6851    6544    6729    6531  # B-N-B-HB
     23    1    6851    6544    6742    6545  # B-N-B-HB
     24    1    6851    6544    6742    6557  # B-N-B-HB
     25    1    6845    6556    6741    6542  # B-N-B-HB
     26    1    6845    6556    6741    6543  # B-N-B-HB
     27    1    6845    6556    6753    6555  # B-N-B-HB
     28    1    6845    6556    6753    6568  # B-N-B-HB
     29    1    6852    6557    6742    6544  # B-N-B-HB
     30    1    6852    6557    6742    6545  # B-N-B-HB
     31    1    6852    6557    6754    6558  # B-N-B-HB
     32    1    6852    6557    6754    6569  # B-N-B-HB
     33    1    6844    6581    6776    6580  # B-N-B-HB
     34    1    6844    6581    6776    6596  # B-N-B-HB
     35    1    6844    6581    6777    6582  # B-N-B-HB
     36    1    6844    6581    6777    6597  # B-N-B-HB
     37    1    6843    6582    6777    6581  # B-N-B-HB
     38    1    6843    6582    6777    6597  # B-N-B-HB
     39    1    6843    6582    6778    6583  # B-N-B-HB
     40    1    6843    6582    6778    6598  # B-N-B-HB
     41    1    6842    6583    6778    6582  # B-N-B-HB
     42    1    6842    6583    6778    6598  # B-N-B-HB
     43    1    6842    6583    6779    6584  # B-N-B-HB
     44    1    6842    6583    6779    6599  # B-N-B-HB
     45    1    6841    6584    6779    6583  # B-N-B-HB
     46    1    6841    6584    6779    6599  # B-N-B-HB
     47    1    6841    6584    6780    6585  # B-N-B-HB
     48    1    6841    6584    6780    6600  # B-N-B-HB

Impropers

      1    1    6461    6654    6655    6769  # N-N-B-N
      2    1    6462    6654    6656    6657  # N-N-B-N
      3    1    6463    6655    6657    6658  # N-N-B-N
      4    1    6464    6658    6659    6785  # N-N-B-N
      5    1    6465    6656    6660    6661  # N-N-B-N
      6    1    6466    6657    6661    6662  # N-N-B-N
      7    1    6467    6658    6662    6663  # N-N-B-N
      8    1    6468    6659    6663    6664  # N-N-B-N
      9    1    6469    6664    6665    6799  # N-N-B-N
     10    1    6470    6660    6666    6667  # N-N-B-N
     11    1    6471    6661    6667    6668  # N-N-B-N
     12    1    6472    6662    6668    6669  # N-N-B-N
     13    1    6473    6663    6669    6670  # N-N-B-N
     14    1    6474    6664    6670    6671  # N-N-B-N
     15    1    6475    6665    6671    6672  # N-N-B-N
     16    1    6476    6672    6673    6811  # N-N-B-N
     17    1    6477    6666    6674    6675  # N-N-B-N
     18    1    6478    6667    6675    6676  # N-N-B-N
     19    1    6479    6668    6676    6677  # N-N-B-N
     20    1    6480    6669    6677    6678  # N-N-B-N
     21    1    6481    6670    6678    6679  # N-N-B-N
     22    1    6482    6671    6679    6680  # N-N-B-N
     23    1    6483    6672    6680    6681  # N-N-B-N
     24    1    6484    6673    6681    6682  # N-N-B-N
     25    1    6485    6682    6683    6821  # N-N-B-N
     26    1    6486    6674    6684    6685  # N-N-B-N
     27    1    6487    6675    6685    6686  # N-N-B-N
     28    1    6488    6676    6686    6687  # N-N-B-N
     29    1    6489    6677    6687    6688  # N-N-B-N
     30    1    6490    6678    6688    6689  # N-N-B-N
     31    1    6491    6679    6689    6690  # N-N-B-N
     32    1    6492    6680    6690    6691  # N-N-B-N
     33    1    6493    6681    6691    6692  # N-N-B-N
     34    1    6494    6682    6692    6693  # N-N-B-N
     35    1    6495    6683    6693    6694  # N-N-B-N
     36    1    6496    6694    6695    6829  # N-N-B-N
     37    1    6497    6684    6696    6697  # N-N-B-N
     38    1    6498    6685    6697    6698  # N-N-B-N
     39    1    6499    6686    6698    6699  # N-N-B-N
     40    1    6500    6687    6699    6700  # N-N-B-N
     41    1    6501    6688    6700    6701  # N-N-B-N
     42    1    6504    6691    6702    6703  # N-N-B-N
     43    1    6505    6692    6703    6704  # N-N-B-N
     44    1    6506    6693    6704    6705  # N-N-B-N
     45    1    6507    6694    6705    6706  # N-N-B-N
     46    1    6508    6695    6706    6707  # N-N-B-N
     47    1    6509    6707    6708    6835  # N-N-B-N
     48    1    6510    6696    6709    6710  # N-N-B-N
     49    1    6511    6697    6710    6711  # N-N-B-N
     50    1    6512    6698    6711    6712  # N-N-B-N
     51    1    6513    6699    6712    6713  # N-N-B-N
     52    1    6514    6700    6713    6714  # N-N-B-N
     53    1    6517    6703    6715    6716  # N-N-B-N
     54    1    6518    6704    6716    6717  # N-N-B-N
     55    1    6519    6705    6717    6718  # N-N-B-N
     56    1    6520    6706    6718    6719  # N-N-B-N
     57    1    6521    6707    6719    6720  # N-N-B-N
     58    1    6522    6708    6720    6721  # N-N-B-N
     59    1    6523    6721    6722    6839  # N-N-B-N
     60    1    6524    6709    6723    6724  # N-N-B-N
     61    1    6525    6710    6724    6725  # N-N-B-N
     62    1    6526    6711    6725    6726  # N-N-B-N
     63    1    6527    6712    6726    6727  # N-N-B-N
     64    1    6528    6713    6727    6728  # N-N-B-N
     65    1    6531    6716    6729    6730  # N-N-B-N
     66    1    6532    6717    6730    6731  # N-N-B-N
     67    1    6533    6718    6731    6732  # N-N-B-N
     68    1    6534    6719    6732    6733  # N-N-B-N
     69    1    6535    6720    6733    6734  # N-N-B-N
     70    1    6536    6721    6734    6735  # N-N-B-N
     71    1    6537    6654    6722    6735  # N-N-B-N
     72    1    6538    6723    6736    6737  # N-N-B-N
     73    1    6539    6724    6737    6738  # N-N-B-N
     74    1    6540    6725    6738    6739  # N-N-B-N
     75    1    6541    6726    6739    6740  # N-N-B-N
     76    1    6542    6727    6740    6741  # N-N-B-N
     77    1    6545    6730    6742    6743  # N-N-B-N
     78    1    6546    6731    6743    6744  # N-N-B-N
     79    1    6547    6732    6744    6745  # N-N-B-N
     80    1    6548    6733    6745    6746  # N-N-B-N
     81    1    6549    6734    6746    6747  # N-N-B-N
     82    1    6550    6656    6735    6747  # N-N-B-N
     83    1    6551    6736    6748    6749  # N-N-B-N
     84    1    6552    6737    6749    6750  # N-N-B-N
     85    1    6553    6738    6750    6751  # N-N-B-N
     86    1    6554    6739    6751    6752  # N-N-B-N
     87    1    6555    6740    6752    6753  # N-N-B-N
     88    1    6558    6743    6754    6755  # N-N-B-N
     89    1    6559    6744    6755    6756  # N-N-B-N
     90    1    6560    6745    6756    6757  # N-N-B-N
     91    1    6561    6746    6757    6758  # N-N-B-N
     92    1    6562    6660    6747    6758  # N-N-B-N
     93    1    6563    6748    6759    6760  # N-N-B-N
     94    1    6564    6749    6760    6761  # N-N-B-N
     95    1    6565    6750    6761    6762  # N-N-B-N
     96    1    6566    6751    6762    6763  # N-N-B-N
     97    1    6567    6752    6763    6764  # N-N-B-N
     98    1    6570    6755    6765    6766  # N-N-B-N
     99    1    6571    6756    6766    6767  # N-N-B-N
    100    1    6572    6757    6767    6768  # N-N-B-N
    101    1    6573    6666    6758    6768  # N-N-B-N
    102    1    6574    6759    6769    6770  # N-N-B-N
    103    1    6575    6760    6770    6771  # N-N-B-N
    104    1    6576    6761    6771    6772  # N-N-B-N
    105    1    6577    6762    6772    6773  # N-N-B-N
    106    1    6578    6763    6773    6774  # N-N-B-N
    107    1    6579    6764    6774    6775  # N-N-B-N
    108    1    6586    6765    6781    6782  # N-N-B-N
    109    1    6587    6766    6782    6783  # N-N-B-N
    110    1    6588    6767    6783    6784  # N-N-B-N
    111    1    6589    6674    6768    6784  # N-N-B-N
    112    1    6590    6655    6770    6785  # N-N-B-N
    113    1    6591    6771    6785    6786  # N-N-B-N
    114    1    6592    6772    6786    6787  # N-N-B-N
    115    1    6593    6773    6787    6788  # N-N-B-N
    116    1    6594    6774    6788    6789  # N-N-B-N
    117    1    6595    6775    6789    6790  # N-N-B-N
    118    1    6596    6776    6790    6791  # N-N-B-N
    119    1    6597    6777    6791    6792  # N-N-B-N
    120    1    6598    6778    6792    6793  # N-N-B-N
    121    1    6599    6779    6793    6794  # N-N-B-N
    122    1    6600    6780    6794    6795  # N-N-B-N
    123    1    6601    6781    6795    6796  # N-N-B-N
    124    1    6602    6782    6796    6797  # N-N-B-N
    125    1    6603    6783    6797    6798  # N-N-B-N
    126    1    6604    6684    6784    6798  # N-N-B-N
    127    1    6605    6659    6786    6799  # N-N-B-N
    128    1    6606    6787    6799    6800  # N-N-B-N
    129    1    6607    6788    6800    6801  # N-N-B-N
    130    1    6608    6789    6801    6802  # N-N-B-N
    131    1    6609    6790    6802    6803  # N-N-B-N
    132    1    6610    6791    6803    6804  # N-N-B-N
    133    1    6611    6792    6804    6805  # N-N-B-N
    134    1    6612    6793    6805    6806  # N-N-B-N
    135    1    6613    6794    6806    6807  # N-N-B-N
    136    1    6614    6795    6807    6808  # N-N-B-N
    137    1    6615    6796    6808    6809  # N-N-B-N
    138    1    6616    6797    6809    6810  # N-N-B-N
    139    1    6617    6696    6798    6810  # N-N-B-N
    140    1    6618    6665    6800    6811  # N-N-B-N
    141    1    6619    6801    6811    6812  # N-N-B-N
    142    1    6620    6802    6812    6813  # N-N-B-N
    143    1    6621    6803    6813    6814  # N-N-B-N
    144    1    6622    6804    6814    6815  # N-N-B-N
    145    1    6623    6805    6815    6816  # N-N-B-N
    146    1    6624    6806    6816    6817  # N-N-B-N
    147    1    6625    6807    6817    6818  # N-N-B-N
    148    1    6626    6808    6818    6819  # N-N-B-N
    149    1    6627    6809    6819    6820  # N-N-B-N
    150    1    6628    6709    6810    6820  # N-N-B-N
    151    1    6629    6673    6812    6821  # N-N-B-N
    152    1    6630    6813    6821    6822  # N-N-B-N
    153    1    6631    6814    6822    6823  # N-N-B-N
    154    1    6632    6815    6823    6824  # N-N-B-N
    155    1    6633    6816    6824    6825  # N-N-B-N
    156    1    6634    6817    6825    6826  # N-N-B-N
    157    1    6635    6818    6826    6827  # N-N-B-N
    158    1    6636    6819    6827    6828  # N-N-B-N
    159    1    6637    6723    6820    6828  # N-N-B-N
    160    1    6638    6683    6822    6829  # N-N-B-N
    161    1    6639    6823    6829    6830  # N-N-B-N
    162    1    6640    6824    6830    6831  # N-N-B-N
    163    1    6641    6825    6831    6832  # N-N-B-N
    164    1    6642    6826    6832    6833  # N-N-B-N
    165    1    6643    6827    6833    6834  # N-N-B-N
    166    1    6644    6736    6828    6834  # N-N-B-N
    167    1    6645    6695    6830    6835  # N-N-B-N
    168    1    6646    6831    6835    6836  # N-N-B-N
    169    1    6647    6832    6836    6837  # N-N-B-N
    170    1    6648    6833    6837    6838  # N-N-B-N
    171    1    6649    6748    6834    6838  # N-N-B-N
    172    1    6650    6708    6836    6839  # N-N-B-N
    173    1    6651    6837    6839    6840  # N-N-B-N
    174    1    6652    6759    6838    6840  # N-N-B-N
    175    1    6653    6722    6769    6840  # N-N-B-N
    176    2    6654    6461    6462    6537  # B-B-N-B
    177    2    6655    6461    6463    6590  # B-B-N-B
    178    2    6656    6462    6465    6550  # B-B-N-B
    179    2    6657    6462    6463    6466  # B-B-N-B
    180    2    6658    6463    6464    6467  # B-B-N-B
    181    2    6659    6464    6468    6605  # B-B-N-B
    182    2    6660    6465    6470    6562  # B-B-N-B
    183    2    6661    6465    6466    6471  # B-B-N-B
    184    2    6662    6466    6467    6472  # B-B-N-B
    185    2    6663    6467    6468    6473  # B-B-N-B
    186    2    6664    6468    6469    6474  # B-B-N-B
    187    2    6665    6469    6475    6618  # B-B-N-B
    188    2    6666    6470    6477    6573  # B-B-N-B
    189    2    6667    6470    6471    6478  # B-B-N-B
    190    2    6668    6471    6472    6479  # B-B-N-B
    191    2    6669    6472    6473    6480  # B-B-N-B
    192    2    6670    6473    6474    6481  # B-B-N-B
    193    2    6671    6474    6475    6482  # B-B-N-B
    194    2    6672    6475    6476    6483  # B-B-N-B
    195    2    6673    6476    6484    6629  # B-B-N-B
    196    2    6674    6477    6486    6589  # B-B-N-B
    197    2    6675    6477    6478    6487  # B-B-N-B
    198    2    6676    6478    6479    6488  # B-B-N-B
    199    2    6677    6479    6480    6489  # B-B-N-B
    200    2    6678    6480    6481    6490  # B-B-N-B
    201    2    6679    6481    6482    6491  # B-B-N-B
    202    2    6680    6482    6483    6492  # B-B-N-B
    203    2    6681    6483    6484    6493  # B-B-N-B
    204    2    6682    6484    6485    6494  # B-B-N-B
    205    2    6683    6485    6495    6638  # B-B-N-B
    206    2    6684    6486    6497    6604  # B-B-N-B
    207    2    6685    6486    6487    6498  # B-B-N-B
    208    2    6686    6487    6488    6499  # B-B-N-B
    209    2    6687    6488    6489    6500  # B-B-N-B
    210    2    6688    6489    6490    6501  # B-B-N-B
    211    2    6689    6490    6491    6502  # B-B-N-B
    212    2    6690    6491    6492    6503  # B-B-N-B
    213    2    6691    6492    6493    6504  # B-B-N-B
    214    2    6692    6493    6494    6505  # B-B-N-B
    215    2    6693    6494    6495    6506  # B-B-N-B
    216    2    6694    6495    6496    6507  # B-B-N-B
    217    2    6695    6496    6508    6645  # B-B-N-B
    218    2    6696    6497    6510    6617  # B-B-N-B
    219    2    6697    6497    6498    6511  # B-B-N-B
    220    2    6698    6498    6499    6512  # B-B-N-B
    221    2    6699    6499    6500    6513  # B-B-N-B
    222    2    6700    6500    6501    6514  # B-B-N-B
    223    2    6701    6501    6502    6515  # B-B-N-B
    224    2    6702    6503    6504    6516  # B-B-N-B
    225    2    6703    6504    6505    6517  # B-B-N-B
    226    2    6704    6505    6506    6518  # B-B-N-B
    227    2    6705    6506    6507    6519  # B-B-N-B
    228    2    6706    6507    6508    6520  # B-B-N-B
    229    2    6707    6508    6509    6521  # B-B-N-B
    230    2    6708    6509    6522    6650  # B-B-N-B
    231    2    6709    6510    6524    6628  # B-B-N-B
    232    2    6710    6510    6511    6525  # B-B-N-B
    233    2    6711    6511    6512    6526  # B-B-N-B
    234    2    6712    6512    6513    6527  # B-B-N-B
    235    2    6713    6513    6514    6528  # B-B-N-B
    236    2    6714    6514    6515    6529  # B-B-N-B
    237    2    6715    6516    6517    6530  # B-B-N-B
    238    2    6716    6517    6518    6531  # B-B-N-B
    239    2    6717    6518    6519    6532  # B-B-N-B
    240    2    6718    6519    6520    6533  # B-B-N-B
    241    2    6719    6520    6521    6534  # B-B-N-B
    242    2    6720    6521    6522    6535  # B-B-N-B
    243    2    6721    6522    6523    6536  # B-B-N-B
    244    2    6722    6523    6537    6653  # B-B-N-B
    245    2    6723    6524    6538    6637  # B-B-N-B
    246    2    6724    6524    6525    6539  # B-B-N-B
    247    2    6725    6525    6526    6540  # B-B-N-B
    248    2    6726    6526    6527    6541  # B-B-N-B
    249    2    6727    6527    6528    6542  # B-B-N-B
    250    2    6728    6528    6529    6543  # B-B-N-B
    251    2    6729    6530    6531    6544  # B-B-N-B
    252    2    6730    6531    6532    6545  # B-B-N-B
    253    2    6731    6532    6533    6546  # B-B-N-B
    254    2    6732    6533    6534    6547  # B-B-N-B
    255    2    6733    6534    6535    6548  # B-B-N-B
    256    2    6734    6535    6536    6549  # B-B-N-B
    257    2    6735    6536    6537    6550  # B-B-N-B
    258    2    6736    6538    6551    6644  # B-B-N-B
    259    2    6737    6538    6539    6552  # B-B-N-B
    260    2    6738    6539    6540    6553  # B-B-N-B
    261    2    6739    6540    6541    6554  # B-B-N-B
    262    2    6740    6541    6542    6555  # B-B-N-B
    263    2    6741    6542    6543    6556  # B-B-N-B
    264    2    6742    6544    6545    6557  # B-B-N-B
    265    2    6743    6545    6546    6558  # B-B-N-B
    266    2    6744    6546    6547    6559  # B-B-N-B
    267    2    6745    6547    6548    6560  # B-B-N-B
    268    2    6746    6548    6549    6561  # B-B-N-B
    269    2    6747    6549    6550    6562  # B-B-N-B
    270    2    6748    6551    6563    6649  # B-B-N-B
    271    2    6749    6551    6552    6564  # B-B-N-B
    272    2    6750    6552    6553    6565  # B-B-N-B
    273    2    6751    6553    6554    6566  # B-B-N-B
    274    2    6752    6554    6555    6567  # B-B-N-B
    275    2    6753    6555    6556    6568  # B-B-N-B
    276    2    6754    6557    6558    6569  # B-B-N-B
    277    2    6755    6558    6559    6570  # B-B-N-B
    278    2    6756    6559    6560    6571  # B-B-N-B
    279    2    6757    6560    6561    6572  # B-B-N-B
    280    2    6758    6561    6562    6573  # B-B-N-B
    281    2    6759    6563    6574    6652  # B-B-N-B
    282    2    6760    6563    6564    6575  # B-B-N-B
    283    2    6761    6564    6565    6576  # B-B-N-B
    284    2    6762    6565    6566    6577  # B-B-N-B
    285    2    6763    6566    6567    6578  # B-B-N-B
    286    2    6764    6567    6568    6579  # B-B-N-B
    287    2    6765    6569    6570    6586  # B-B-N-B
    288    2    6766    6570    6571    6587  # B-B-N-B
    289    2    6767    6571    6572    6588  # B-B-N-B
    290    2    6768    6572    6573    6589  # B-B-N-B
    291    2    6769    6461    6574    6653  # B-B-N-B
    292    2    6770    6574    6575    6590  # B-B-N-B
    293    2    6771    6575    6576    6591  # B-B-N-B
    294    2    6772    6576    6577    6592  # B-B-N-B
    295    2    6773    6577    6578    6593  # B-B-N-B
    296    2    6774    6578    6579    6594  # B-B-N-B
    297    2    6775    6579    6580    6595  # B-B-N-B
    298    2    6776    6580    6581    6596  # B-B-N-B
    299    2    6777    6581    6582    6597  # B-B-N-B
    300    2    6778    6582    6583    6598  # B-B-N-B
    301    2    6779    6583    6584    6599  # B-B-N-B
    302    2    6780    6584    6585    6600  # B-B-N-B
    303    2    6781    6585    6586    6601  # B-B-N-B
    304    2    6782    6586    6587    6602  # B-B-N-B
    305    2    6783    6587    6588    6603  # B-B-N-B
    306    2    6784    6588    6589    6604  # B-B-N-B
    307    2    6785    6464    6590    6591  # B-B-N-B
    308    2    6786    6591    6592    6605  # B-B-N-B
    309    2    6787    6592    6593    6606  # B-B-N-B
    310    2    6788    6593    6594    6607  # B-B-N-B
    311    2    6789    6594    6595    6608  # B-B-N-B
    312    2    6790    6595    6596    6609  # B-B-N-B
    313    2    6791    6596    6597    6610  # B-B-N-B
    314    2    6792    6597    6598    6611  # B-B-N-B
    315    2    6793    6598    6599    6612  # B-B-N-B
    316    2    6794    6599    6600    6613  # B-B-N-B
    317    2    6795    6600    6601    6614  # B-B-N-B
    318    2    6796    6601    6602    6615  # B-B-N-B
    319    2    6797    6602    6603    6616  # B-B-N-B
    320    2    6798    6603    6604    6617  # B-B-N-B
    321    2    6799    6469    6605    6606  # B-B-N-B
    322    2    6800    6606    6607    6618  # B-B-N-B
    323    2    6801    6607    6608    6619  # B-B-N-B
    324    2    6802    6608    6609    6620  # B-B-N-B
    325    2    6803    6609    6610    6621  # B-B-N-B
    326    2    6804    6610    6611    6622  # B-B-N-B
    327    2    6805    6611    6612    6623  # B-B-N-B
    328    2    6806    6612    6613    6624  # B-B-N-B
    329    2    6807    6613    6614    6625  # B-B-N-B
    330    2    6808    6614    6615    6626  # B-B-N-B
    331    2    6809    6615    6616    6627  # B-B-N-B
    332    2    6810    6616    6617    6628  # B-B-N-B
    333    2    6811    6476    6618    6619  # B-B-N-B
    334    2    6812    6619    6620    6629  # B-B-N-B
    335    2    6813    6620    6621    6630  # B-B-N-B
    336    2    6814    6621    6622    6631  # B-B-N-B
    337    2    6815    6622    6623    6632  # B-B-N-B
    338    2    6816    6623    6624    6633  # B-B-N-B
    339    2    6817    6624    6625    6634  # B-B-N-B
    340    2    6818    6625    6626    6635  # B-B-N-B
    341    2    6819    6626    6627    6636  # B-B-N-B
    342    2    6820    6627    6628    6637  # B-B-N-B
    343    2    6821    6485    6629    6630  # B-B-N-B
    344    2    6822    6630    6631    6638  # B-B-N-B
    345    2    6823    6631    6632    6639  # B-B-N-B
    346    2    6824    6632    6633    6640  # B-B-N-B
    347    2    6825    6633    6634    6641  # B-B-N-B
    348    2    6826    6634    6635    6642  # B-B-N-B
    349    2    6827    6635    6636    6643  # B-B-N-B
    350    2    6828    6636    6637    6644  # B-B-N-B
    351    2    6829    6496    6638    6639  # B-B-N-B
    352    2    6830    6639    6640    6645  # B-B-N-B
    353    2    6831    6640    6641    6646  # B-B-N-B
    354    2    6832    6641    6642    6647  # B-B-N-B
    355    2    6833    6642    6643    6648  # B-B-N-B
    356    2    6834    6643    6644    6649  # B-B-N-B
    357    2    6835    6509    6645    6646  # B-B-N-B
    358    2    6836    6646    6647    6650  # B-B-N-B
    359    2    6837    6647    6648    6651  # B-B-N-B
    360    2    6838    6648    6649    6652  # B-B-N-B
    361    2    6839    6523    6650    6651  # B-B-N-B
    362    2    6840    6651    6652    6653  # B-B-N-B
