! PBE0 def2-SVP D3BJ RIJCOSX TightSCF TDDFT

%pal
  nprocs 4
end

%tddft
  nroots 10
  maxdim 50
end

%scf
  MaxIter 300
end

* xyz 0 1
C     40.470000    53.110000    43.310000
C     39.800000    53.160000    44.540000
C     38.400000    53.310000    44.580000
C     37.730000    53.370000    45.810000
C     36.330000    53.510000    45.850000
C     35.590000    53.600000    44.650000
C     34.190000    53.750000    44.680000
C     33.470000    53.840000    43.480000
C     34.140000    53.780000    42.240000
C     35.540000    53.640000    42.200000
C     36.220000    53.580000    40.970000
C     37.610000    53.430000    40.940000
C     38.350000    53.340000    42.140000
C     39.740000    53.200000    42.110000
C     37.670000    53.400000    43.380000
C     36.270000    53.550000    43.410000
H     41.550000    52.990000    43.280000
H     40.370000    53.090000    45.470000
H     38.280000    53.290000    46.750000
H     35.810000    53.540000    46.810000
H     33.670000    53.790000    45.630000
H     32.390000    53.940000    43.500000
H     33.570000    53.850000    41.320000
H     35.660000    53.650000    40.040000
H     38.120000    53.400000    39.980000
H     40.270000    53.150000    41.160000
*
