! wB97X-D3 def2-SVP def2/J RIJCOSX TightSCF
%maxcore 4096
%tddft
  nroots 10
  tda true
end
%pointcharges "frame020_PYR2_embedding.pc"
* xyz 0 1
C       53.100000      33.480000      29.910000
C       53.160000      34.150000      31.150000
C       53.300000      35.540000      31.190000
C       53.360000      36.220000      32.420000
C       53.510000      37.610000      32.450000
C       53.600000      38.350000      31.260000
C       53.740000      39.740000      31.280000
C       53.830000      40.470000      30.090000
C       53.770000      39.800000      28.850000
C       53.630000      38.400000      28.810000
C       53.570000      37.730000      27.580000
C       53.420000      36.330000      27.540000
C       53.340000      35.600000      28.740000
C       53.190000      34.200000      28.710000
C       53.390000      36.270000      29.980000
C       53.540000      37.670000      30.020000
H       52.980000      32.400000      29.890000
H       53.090000      33.570000      32.070000
H       53.300000      35.670000      33.350000
H       53.550000      38.120000      33.410000
H       53.790000      40.270000      32.230000
H       53.950000      41.550000      30.110000
H       53.840000      40.380000      27.930000
H       53.630000      38.280000      26.650000
H       53.370000      35.820000      26.590000
H       53.140000      33.670000      27.770000
*
